thermo 1000
thermo_style custom step temp press vol density etotal

# Water-water LJ parameters for TIP3P
pair_coeff  1 1 0.102 3.188  # O-O
pair_coeff  2 2 0.000 0.000  # H-H
# Bond and angle parameters
bond_coeff  1 450.0 0.9572   # O-H bond
angle_coeff 1 55.0 104.52    # H-O-H angle

# --- Setup masses ---
mass 1 15.9994  # O
mass 2 1.008    # H

# --- Settings ---
# Special bonds settings for water
special_bonds lj/coul 0.0 0.0 0.5
Finding 1-2 1-3 1-4 neighbors ...
  special bond factors lj:    0        0        0.5     
  special bond factors coul:  0        0        0.5     
     2 = max # of 1-2 neighbors
     1 = max # of 1-3 neighbors
     1 = max # of 1-4 neighbors
     2 = max # of special neighbors
  special bonds CPU = 0.001 seconds
neighbor 2.0 bin
neigh_modify every 1 delay 0 check yes

# --- MD settings ---
timestep 1.0  # 1 fs timestep

# --- Initial minimization ---
minimize 1.0e-4 1.0e-6 1000 10000
PPPM initialization ...
  using 12-bit tables for long-range coulomb (src/kspace.cpp:342)
  G vector (1/distance) = 0.26094871
  grid = 20 20 20
  stencil order = 5
  estimated absolute RMS force accuracy = 0.024674246
  estimated relative force accuracy = 7.430576e-05
  using double precision FFTW3
  3d grid and FFT values/proc = 17576 8000
Generated 1 of 1 mixed pair_coeff terms from arithmetic mixing rule
Neighbor list info ...
  update: every = 1 steps, delay = 0 steps, check = yes
  max neighbors/atom: 2000, page size: 100000
  master list distance cutoff = 12
  ghost atom cutoff = 12
  binsize = 6, bins = 7 7 7
  1 neighbor lists, perpetual/occasional/extra = 1 0 0
  (1) pair lj/cut/coul/long, perpetual
      attributes: half, newton on
      pair build: half/bin/newton
      stencil: half/bin/3d
      bin: standard
Per MPI rank memory allocation (min/avg/max) = 11.99 | 11.99 | 11.99 Mbytes
   Step          Temp          Press          Volume        Density         TotEng    
         0   0              3777918.1      64000          0.46742614     894667.11    
       310   0             -1706.7303      64000          0.46742614    -11266.297    
Loop time of 4.7703 on 1 procs for 310 steps with 3000 atoms

100.0% CPU use with 1 MPI tasks x 1 OpenMP threads

Minimization stats:
  Stopping criterion = energy tolerance
  Energy initial, next-to-last, final = 
      894667.111360128  -11265.2800106539  -11266.2972539133
  Force two-norm initial, final = 11642016 49.008765
  Force max component initial, final = 7202659.4 6.1231201
  Final line search alpha, max atom move = 0.0084812575 0.051931758
  Iterations, force evaluations = 310 543

MPI task timing breakdown:
Section |  min time  |  avg time  |  max time  |%varavg| %total
---------------------------------------------------------------
Pair    | 3.9748     | 3.9748     | 3.9748     |   0.0 | 83.32
Bond    | 0.033978   | 0.033978   | 0.033978   |   0.0 |  0.71
Kspace  | 0.55624    | 0.55624    | 0.55624    |   0.0 | 11.66
Neigh   | 0.13699    | 0.13699    | 0.13699    |   0.0 |  2.87
Comm    | 0.031593   | 0.031593   | 0.031593   |   0.0 |  0.66
Output  | 0          | 0          | 0          |   0.0 |  0.00
Modify  | 0          | 0          | 0          |   0.0 |  0.00
Other   |            | 0.03668    |            |       |  0.77

Nlocal:           3000 ave        3000 max        3000 min
Histogram: 1 0 0 0 0 0 0 0 0 0
Nghost:           9282 ave        9282 max        9282 min
Histogram: 1 0 0 0 0 0 0 0 0 0
Neighs:         514890 ave      514890 max      514890 min
Histogram: 1 0 0 0 0 0 0 0 0 0

Total # of neighbors = 514890
Ave neighs/atom = 171.63
Ave special neighs/atom = 2
Neighbor list builds = 15
Dangerous builds = 0
thermo 1000
thermo_style custom step temp press vol density etotal

# Water-water LJ parameters for TIP3P
pair_coeff  1 1 0.102 3.188  # O-O
pair_coeff  2 2 0.000 0.000  # H-H
# Bond and angle parameters
bond_coeff  1 450.0 0.9572   # O-H bond
angle_coeff 1 55.0 104.52    # H-O-H angle

# --- Setup masses ---
mass 1 15.9994  # O
mass 2 1.008    # H

# --- Settings ---
# Special bonds settings for water
special_bonds lj/coul 0.0 0.0 0.5
Finding 1-2 1-3 1-4 neighbors ...
  special bond factors lj:    0        0        0.5     
  special bond factors coul:  0        0        0.5     
     2 = max # of 1-2 neighbors
     1 = max # of 1-3 neighbors
     1 = max # of 1-4 neighbors
     2 = max # of special neighbors
  special bonds CPU = 0.001 seconds
neighbor 2.5 bin
neigh_modify every 1 delay 0 check yes one 10000  # max neighbors

# --- MD settings ---
timestep 1.0  # 1 fs timestep
# --- Initial minimization ---
minimize 1.0e-4 1.0e-6 5000 50000
PPPM initialization ...
  using 12-bit tables for long-range coulomb (src/kspace.cpp:342)
  G vector (1/distance) = 0.26094871
  grid = 20 20 20
  stencil order = 5
  estimated absolute RMS force accuracy = 0.024674246
  estimated relative force accuracy = 7.430576e-05
  using double precision FFTW3
  3d grid and FFT values/proc = 19683 8000
Generated 1 of 1 mixed pair_coeff terms from arithmetic mixing rule
Neighbor list info ...
  update: every = 1 steps, delay = 0 steps, check = yes
  max neighbors/atom: 10000, page size: 100000
  master list distance cutoff = 12.5
  ghost atom cutoff = 12.5
  binsize = 6.25, bins = 7 7 7
  1 neighbor lists, perpetual/occasional/extra = 1 0 0
  (1) pair lj/cut/coul/long, perpetual
      attributes: half, newton on
      pair build: half/bin/newton
      stencil: half/bin/3d
      bin: standard
Per MPI rank memory allocation (min/avg/max) = 12.48 | 12.48 | 12.48 Mbytes
   Step          Temp          Press          Volume        Density         TotEng    
         0   0              3777918.1      64000          0.46742614     894667.11    
       282   0             -1963.8254      64000          0.46742614    -11170.599    
Loop time of 4.19319 on 1 procs for 282 steps with 3000 atoms

100.0% CPU use with 1 MPI tasks x 1 OpenMP threads

Minimization stats:
  Stopping criterion = energy tolerance
  Energy initial, next-to-last, final = 
      894667.111360128  -11169.5981970827  -11170.5991598767
  Force two-norm initial, final = 11642016 39.177584
  Force max component initial, final = 7202659.4 5.7125002
  Final line search alpha, max atom move = 0.010236553 0.058476313
  Iterations, force evaluations = 282 489

MPI task timing breakdown:
Section |  min time  |  avg time  |  max time  |%varavg| %total
---------------------------------------------------------------
Pair    | 3.594      | 3.594      | 3.594      |   0.0 | 85.71
Bond    | 0.026931   | 0.026931   | 0.026931   |   0.0 |  0.64
Kspace  | 0.44124    | 0.44124    | 0.44124    |   0.0 | 10.52
Neigh   | 0.092563   | 0.092563   | 0.092563   |   0.0 |  2.21
Comm    | 0.017377   | 0.017377   | 0.017377   |   0.0 |  0.41
Output  | 0          | 0          | 0          |   0.0 |  0.00
Modify  | 0          | 0          | 0          |   0.0 |  0.00
Other   |            | 0.02107    |            |       |  0.50

Nlocal:           3000 ave        3000 max        3000 min
Histogram: 1 0 0 0 0 0 0 0 0 0
Nghost:           9799 ave        9799 max        9799 min
Histogram: 1 0 0 0 0 0 0 0 0 0
Neighs:         580216 ave      580216 max      580216 min
Histogram: 1 0 0 0 0 0 0 0 0 0

Total # of neighbors = 580216
Ave neighs/atom = 193.40533
Ave special neighs/atom = 2
Neighbor list builds = 10
Dangerous builds = 0

# --- Add a short NVT equilibration before NPT ---
print "Starting short NVT equilibration phase"
Starting short NVT equilibration phase
fix 1 all shake 0.0001 20 0 b 1 a 1
Finding SHAKE clusters ...
       0 = # of size 2 clusters
       0 = # of size 3 clusters
       0 = # of size 4 clusters
    1000 = # of frozen angles
  find clusters CPU = 0.001 seconds
fix 2 all nvt temp 50.0 300.0 100.0  # Gentle temperature ramp-up
thermo 500
run 5000  # 5 ps gentle heating
PPPM initialization ...
  using 12-bit tables for long-range coulomb (src/kspace.cpp:342)
  G vector (1/distance) = 0.26094871
  grid = 20 20 20
  stencil order = 5
  estimated absolute RMS force accuracy = 0.024674246
  estimated relative force accuracy = 7.430576e-05
  using double precision FFTW3
  3d grid and FFT values/proc = 19683 8000
Generated 1 of 1 mixed pair_coeff terms from arithmetic mixing rule
Per MPI rank memory allocation (min/avg/max) = 12.23 | 12.23 | 12.23 Mbytes
   Step          Temp          Press          Volume        Density         TotEng    
       282   0             -1221.2415      64000          0.46742614    -12052.267    
       500   24.694067     -1762.4901      64000          0.46742614    -10283.166    
      1000   88.765481     -1056.1128      64000          0.46742614    -9891.4808    
      1500   113.53502     -1046.786       64000          0.46742614    -9755.5685    
      2000   132.68846     -852.27196      64000          0.46742614    -9556.9043    
      2500   158.28327     -619.63642      64000          0.46742614    -9361.608     
      3000   186.08142     -965.41513      64000          0.46742614    -9142.5951    
      3500   215.83098     -552.59708      64000          0.46742614    -8855.4369    
      4000   233.23965     -319.20245      64000          0.46742614    -8479.771     
      4500   259.29568     -125.88637      64000          0.46742614    -8049.9678    
      5000   287.18508     -318.24419      64000          0.46742614    -7686.415     
      5282   290.51848     -194.24311      64000          0.46742614    -7523.9573    
Loop time of 35.1624 on 1 procs for 5000 steps with 3000 atoms

Performance: 12.286 ns/day, 1.953 hours/ns, 142.197 timesteps/s, 426.592 katom-step/s
100.0% CPU use with 1 MPI tasks x 1 OpenMP threads

MPI task timing breakdown:
Section |  min time  |  avg time  |  max time  |%varavg| %total
---------------------------------------------------------------
Pair    | 28.239     | 28.239     | 28.239     |   0.0 | 80.31
Bond    | 0.0025264  | 0.0025264  | 0.0025264  |   0.0 |  0.01
Kspace  | 4.7044     | 4.7044     | 4.7044     |   0.0 | 13.38
Neigh   | 1.1008     | 1.1008     | 1.1008     |   0.0 |  3.13
Comm    | 0.202      | 0.202      | 0.202      |   0.0 |  0.57
Output  | 0.00059914 | 0.00059914 | 0.00059914 |   0.0 |  0.00
Modify  | 0.83768    | 0.83768    | 0.83768    |   0.0 |  2.38
Other   |            | 0.07508    |            |       |  0.21

Nlocal:           3000 ave        3000 max        3000 min
Histogram: 1 0 0 0 0 0 0 0 0 0
Nghost:           9749 ave        9749 max        9749 min
Histogram: 1 0 0 0 0 0 0 0 0 0
Neighs:         678365 ave      678365 max      678365 min
Histogram: 1 0 0 0 0 0 0 0 0 0

Total # of neighbors = 678365
Ave neighs/atom = 226.12167
Ave special neighs/atom = 2
Neighbor list builds = 121
Dangerous builds = 0

# --- Equilibration in NPT with gentle pressure coupling ---
print "Starting NPT equilibration phase"
Starting NPT equilibration phase
unfix 2
fix 2 all npt temp 300.0 300.0 100.0 iso 1.0 1.0 2000.0  # Slow pressure coupling
thermo 1000
thermo_style custom step temp press vol density etotal

# Run NPT in stages with careful monitoring
print "NPT stage 1: 10ps"
NPT stage 1: 10ps
run 10000  # 10 ps initial NPT
PPPM initialization ...
  using 12-bit tables for long-range coulomb (src/kspace.cpp:342)
  G vector (1/distance) = 0.26094871
  grid = 20 20 20
  stencil order = 5
  estimated absolute RMS force accuracy = 0.024674246
  estimated relative force accuracy = 7.430576e-05
  using double precision FFTW3
  3d grid and FFT values/proc = 19683 8000
Generated 1 of 1 mixed pair_coeff terms from arithmetic mixing rule
Per MPI rank memory allocation (min/avg/max) = 12.61 | 12.61 | 12.61 Mbytes
   Step          Temp          Press          Volume        Density         TotEng    
      5282   290.51848     -193.90993      64000          0.46742614    -7523.9573    
      6000   295.25148     -461.82244      61551.701      0.48601862    -7534.7299    
      7000   295.92577     -298.48782      58206.672      0.51394921    -7609.8287    
      8000   303.53694     -165.20136      55203.84       0.54190565    -7602.3284    
      9000   307.59979     -106.36353      52628.85       0.56841966    -7693.4656    
     10000   306.22471     -308.36907      50774.677      0.58917702    -7744.1741    
     11000   293.37989     -337.8031       49144.377      0.6087222     -7717.8684    
     12000   295.0643      -242.5758       46873.354      0.63821489    -7848.7743    
     13000   304.78808     -238.12986      44574.931      0.67112326    -7767.9921    
     14000   297.07734     -99.774972      43011.504      0.69551794    -7998.7389    
     15000   299.01592     -238.74239      42018.78       0.71195006    -7962.481     
     15282   292.17067     -76.43964       41596.007      0.71918617    -7975.4657    
Loop time of 100.905 on 1 procs for 10000 steps with 3000 atoms

Performance: 8.562 ns/day, 2.803 hours/ns, 99.103 timesteps/s, 297.308 katom-step/s
100.0% CPU use with 1 MPI tasks x 1 OpenMP threads

MPI task timing breakdown:
Section |  min time  |  avg time  |  max time  |%varavg| %total
---------------------------------------------------------------
Pair    | 79.377     | 79.377     | 79.377     |   0.0 | 78.66
Bond    | 0.0065933  | 0.0065933  | 0.0065933  |   0.0 |  0.01
Kspace  | 9.2475     | 9.2475     | 9.2475     |   0.0 |  9.16
Neigh   | 4.3502     | 4.3502     | 4.3502     |   0.0 |  4.31
Comm    | 0.35137    | 0.35137    | 0.35137    |   0.0 |  0.35
Output  | 0.00045285 | 0.00045285 | 0.00045285 |   0.0 |  0.00
Modify  | 7.453      | 7.453      | 7.453      |   0.0 |  7.39
Other   |            | 0.1194     |            |       |  0.12

Nlocal:           3000 ave        3000 max        3000 min
Histogram: 1 0 0 0 0 0 0 0 0 0
Nghost:          12063 ave       12063 max       12063 min
Histogram: 1 0 0 0 0 0 0 0 0 0
Neighs:         979800 ave      979800 max      979800 min
Histogram: 1 0 0 0 0 0 0 0 0 0

Total # of neighbors = 979800
Ave neighs/atom = 326.6
Ave special neighs/atom = 2
Neighbor list builds = 349
Dangerous builds = 0

# Check and reset if needed
print "NPT stage 2: 20ps"
NPT stage 2: 20ps
run 20000  # 20 ps more NPT
PPPM initialization ...
  using 12-bit tables for long-range coulomb (src/kspace.cpp:342)
  G vector (1/distance) = 0.26421662
  grid = 18 18 18
  stencil order = 5
  estimated absolute RMS force accuracy = 0.025779529
  estimated relative force accuracy = 7.7634285e-05
  using double precision FFTW3
  3d grid and FFT values/proc = 15625 5832
Generated 1 of 1 mixed pair_coeff terms from arithmetic mixing rule
Per MPI rank memory allocation (min/avg/max) = 13.67 | 13.67 | 13.67 Mbytes
   Step          Temp          Press          Volume        Density         TotEng    
     15282   292.17067     -142.5665       41596.007      0.71918617    -7975.3696    
     16000   297.01354     -509.63099      40552.142      0.73769896    -8006.0995    
     17000   299.90509     -213.03458      39151.646      0.76408723    -7911.4631    
     18000   298.19679     -221.61501      37831.601      0.79074827    -8057.4718    
     19000   309.86719     -324.02825      36546.232      0.81855969    -7970.537     
     20000   301.7137      -640.49819      35743.588      0.83694096    -7936.0979    
     21000   299.73085     -113.3312       34213.523      0.87436984    -8088.5435    
     22000   294.28209     -233.49435      33206.488      0.90088637    -8030.3972    
     23000   308.06982     -575.32628      31982.525      0.93536308    -8095.4973    
     24000   300.97739     -748.8158       30979.36       0.96565175    -8125.5663    
     25000   301.60651      427.39513      30238.901      0.98929763    -8232.2845    
     26000   302.2786      -288.03307      30658.689      0.97575186    -8253.1553    
     27000   297.04979      242.24054      30087.174      0.99428657    -8316.5574    
     28000   297.69785     -712.46641      30063.586      0.9950667     -8353.6068    
     29000   301.97391      733.21975      29895.738      1.0006534     -8297.2947    
     30000   293.21684      153.80061      30018.253      0.99656943    -8295.577     
     31000   299.49645     -408.66221      30327.595      0.98640438    -8274.1004    
     32000   302.99702      83.818653      30389.102      0.98440792    -8297.4189    
     33000   309.49703      288.3338       30388.199      0.98443718    -8217.7528    
     34000   289.15903      235.2831       30279.908      0.98795785    -8367.7205    
     35000   304.84907      478.54446      29570.757      1.0116506     -8299.4379    
     35282   290.26349      795.55396      29538.26       1.0127635     -8335.3993    
Loop time of 262.927 on 1 procs for 20000 steps with 3000 atoms

Performance: 6.572 ns/day, 3.652 hours/ns, 76.067 timesteps/s, 228.200 katom-step/s
100.0% CPU use with 1 MPI tasks x 1 OpenMP threads

MPI task timing breakdown:
Section |  min time  |  avg time  |  max time  |%varavg| %total
---------------------------------------------------------------
Pair    | 216.38     | 216.38     | 216.38     |   0.0 | 82.30
Bond    | 0.017185   | 0.017185   | 0.017185   |   0.0 |  0.01
Kspace  | 19.612     | 19.612     | 19.612     |   0.0 |  7.46
Neigh   | 13.197     | 13.197     | 13.197     |   0.0 |  5.02
Comm    | 0.98152    | 0.98152    | 0.98152    |   0.0 |  0.37
Output  | 0.00087698 | 0.00087698 | 0.00087698 |   0.0 |  0.00
Modify  | 12.438     | 12.438     | 12.438     |   0.0 |  4.73
Other   |            | 0.3033     |            |       |  0.12

Nlocal:           3000 ave        3000 max        3000 min
Histogram: 1 0 0 0 0 0 0 0 0 0
Nghost:          14694 ave       14694 max       14694 min
Histogram: 1 0 0 0 0 0 0 0 0 0
Neighs:    1.24494e+06 ave 1.24494e+06 max 1.24494e+06 min
Histogram: 1 0 0 0 0 0 0 0 0 0

Total # of neighbors = 1244944
Ave neighs/atom = 414.98133
Ave special neighs/atom = 2
Neighbor list builds = 677
Dangerous builds = 0

print "NPT stage 3: 20ps"
NPT stage 3: 20ps
run 20000  # Final 20 ps NPT
PPPM initialization ...
  using 12-bit tables for long-range coulomb (src/kspace.cpp:342)
  G vector (1/distance) = 0.26390404
  grid = 16 16 16
  stencil order = 5
  estimated absolute RMS force accuracy = 0.031101262
  estimated relative force accuracy = 9.3660527e-05
  using double precision FFTW3
  3d grid and FFT values/proc = 12167 4096
Generated 1 of 1 mixed pair_coeff terms from arithmetic mixing rule
Per MPI rank memory allocation (min/avg/max) = 21.57 | 21.57 | 21.57 Mbytes
   Step          Temp          Press          Volume        Density         TotEng    
     35282   290.26349      800.7777       29538.26       1.0127635     -8335.4497    
     36000   295.9698      -472.958        30089.852      0.99419808    -8329.4603    
     37000   300.67326     -393.25624      30061.064      0.99515017    -8206.321     
     38000   301.90739      164.54683      29998.149      0.99723729    -8201.0747    
     39000   300.39861      201.93223      30028.077      0.99624337    -8247.8273    
     40000   308.1596      -516.73051      30437.206      0.98285213    -8189.4443    
     41000   300.93827      151.83743      29990.039      0.99750696    -8210.7561    
     42000   289.21035     -615.0406       30260.26       0.98859933    -8380.4479    
     43000   295.89386      46.162424      30399.134      0.98408306    -8334.3607    
     44000   303.68387     -734.54485      30439.836      0.98276721    -8279.8067    
     45000   295.2144       223.12594      29774.218      1.0047375     -8276.5869    
     46000   301.54294      338.46598      29968.622      0.99821984    -8186.3454    
     47000   304.18195     -19.205486      29791.531      1.0041536     -8223.4438    
     48000   293.04131     -90.319923      30002.209      0.99710235    -8381.1692    
     49000   295.68421      211.04944      30197.594      0.99065087    -8335.8034    
     50000   298.86372     -271.33337      30204.589      0.99042145    -8251.1419    
     51000   298.97457     -474.20131      30728.82       0.97352496    -8218.3079    
     52000   304.71901      627.23867      29759.944      1.0052194     -8311.172     
     53000   305.20052      76.367905      29982.854      0.99774601    -8213.7243    
     54000   294.30771     -164.95955      29756.53       1.0053347     -8317.8336    
     55000   297.57695     -138.34132      29959.574      0.99852131    -8237.8174    
     55282   299.85822     -357.22967      30070.215      0.99484732    -8224.0147    
Loop time of 272.953 on 1 procs for 20000 steps with 3000 atoms

Performance: 6.331 ns/day, 3.791 hours/ns, 73.273 timesteps/s, 219.818 katom-step/s
100.0% CPU use with 1 MPI tasks x 1 OpenMP threads

MPI task timing breakdown:
Section |  min time  |  avg time  |  max time  |%varavg| %total
---------------------------------------------------------------
Pair    | 229.61     | 229.61     | 229.61     |   0.0 | 84.12
Bond    | 0.012123   | 0.012123   | 0.012123   |   0.0 |  0.00
Kspace  | 17.105     | 17.105     | 17.105     |   0.0 |  6.27
Neigh   | 15.294     | 15.294     | 15.294     |   0.0 |  5.60
Comm    | 0.89811    | 0.89811    | 0.89811    |   0.0 |  0.33
Output  | 0.00087853 | 0.00087853 | 0.00087853 |   0.0 |  0.00
Modify  | 9.7939     | 9.7939     | 9.7939     |   0.0 |  3.59
Other   |            | 0.2389     |            |       |  0.09

Nlocal:           3000 ave        3000 max        3000 min
Histogram: 1 0 0 0 0 0 0 0 0 0
Nghost:          14542 ave       14542 max       14542 min
Histogram: 1 0 0 0 0 0 0 0 0 0
Neighs:    1.22308e+06 ave 1.22308e+06 max 1.22308e+06 min
Histogram: 1 0 0 0 0 0 0 0 0 0

Total # of neighbors = 1223080
Ave neighs/atom = 407.69333
Ave special neighs/atom = 2
Neighbor list builds = 672
Dangerous builds = 0

# --- Switch to NVT for production ---
print "Starting NVT production phase"
Starting NVT production phase
unfix 2
reset_timestep 0
fix 2 all nvt temp 300.0 300.0 100.0  # Nos√©-Hoover thermostat

# --- Production run ---
# Define output frequency
variable nfreq equal 100   # Save every 100 steps = 100 fs
thermo ${nfreq}
thermo 100

# Create output directories
shell mkdir traj forces dump_images

# Output trajectory and force information
dump 1 all custom ${nfreq} traj/water_*.lammpstrj id type x y z
dump 1 all custom 100 traj/water_*.lammpstrj id type x y z
dump 2 all custom ${nfreq} forces/force_*.dump id type fx fy fz
dump 2 all custom 100 forces/force_*.dump id type fx fy fz

# Adjust "size", "zoom", and "view" as needed
dump           3 all image 1000 ./dump_images/image_*.png type type size 1024 1024 zoom 1.2 adiam 1.0
dump_modify    3 pad 5 # high-frequency, zero-padded for smooth GIF

# Force H (type 2) to white, O (type 1) stays red
dump_modify 3 acolor 1 red    acolor 2 white

# (optional) Add restart capability
restart 1000 restart.water

# Run production for 5 ns (5,000,000 steps)
print "Starting 5 ns production run..."
Starting 5 ns production run...
run 5000000
PPPM initialization ...
  using 12-bit tables for long-range coulomb (src/kspace.cpp:342)
  G vector (1/distance) = 0.26339761
  grid = 16 16 16
  stencil order = 5
  estimated absolute RMS force accuracy = 0.031659184
  estimated relative force accuracy = 9.5340693e-05
  using double precision FFTW3
  3d grid and FFT values/proc = 12167 4096
Generated 1 of 1 mixed pair_coeff terms from arithmetic mixing rule
Per MPI rank memory allocation (min/avg/max) = 21.57 | 21.57 | 21.57 Mbytes
   Step          Temp          Press          Volume        Density         TotEng    
         0   299.85822     -327.43997      30070.215      0.99484732    -8224.0086    
       100   299.33525      29.776859      30070.215      0.99484732    -8204.2817    
       200   311.83406     -352.81265      30070.215      0.99484732    -8155.5805    
       300   301.71487     -604.52885      30070.215      0.99484732    -8118.8639    
       400   306.23126      173.45237      30070.215      0.99484732    -8080.3142    
       500   297.83843     -239.60611      30070.215      0.99484732    -8113.8653    
       600   306.87653      709.80548      30070.215      0.99484732    -8193.5449    
       700   292.7208       323.66533      30070.215      0.99484732    -8235.0574    
       800   291.87118     -126.43889      30070.215      0.99484732    -8240.5561    
       900   297.51963      191.98305      30070.215      0.99484732    -8216.3506    
      1000   303.15408      177.60535      30070.215      0.99484732    -8262.4559    
      1100   299.61602     -418.10838      30070.215      0.99484732    -8332.4712    
      1200   294.3119      -426.33079      30070.215      0.99484732    -8328.8697    
      1300   300.83452      851.69467      30070.215      0.99484732    -8275.0771    
      1400   301.60389      106.33947      30070.215      0.99484732    -8246.1191    
      1500   304.66515      410.30089      30070.215      0.99484732    -8246.1305    
      1600   299.25086      407.31627      30070.215      0.99484732    -8336.0855    
      1700   293.88582     -642.57819      30070.215      0.99484732    -8369.1534    
      1800   293.35707      702.59398      30070.215      0.99484732    -8317.9778    
      1900   302.68354      557.8362       30070.215      0.99484732    -8265.1962    
      2000   301.46272     -26.789598      30070.215      0.99484732    -8259.0841    
      2100   298.52454     -471.20404      30070.215      0.99484732    -8222.3815    
      2200   296.42797      170.90259      30070.215      0.99484732    -8149.0187    
      2300   307.962        99.176526      30070.215      0.99484732    -8124.0299    
      2400   300.91189     -57.32061       30070.215      0.99484732    -8164.9519    
      2500   307.27387     -164.89566      30070.215      0.99484732    -8212.1799    
      2600   289.0487      -87.234022      30070.215      0.99484732    -8247.1129    
      2700   300.28561      108.27884      30070.215      0.99484732    -8216.1485    
      2800   300.18187      688.59925      30070.215      0.99484732    -8164.3933    
      2900   311.73832     -42.941589      30070.215      0.99484732    -8139.4999    
      3000   298.86783      318.6094       30070.215      0.99484732    -8208.0406    
      3100   298.38231     -290.08798      30070.215      0.99484732    -8268.6058    
      3200   296.42651     -33.162062      30070.215      0.99484732    -8311.0753    
      3300   291.03521      403.14002      30070.215      0.99484732    -8294.3252    
      3400   309.46617      167.90712      30070.215      0.99484732    -8226.956     
      3500   303.11438     -259.50275      30070.215      0.99484732    -8249.123     
      3600   301.37813      320.07258      30070.215      0.99484732    -8281.1848    
      3700   288.13204     -146.40275      30070.215      0.99484732    -8313.4748    
      3800   295.93293      75.028022      30070.215      0.99484732    -8276.4892    
      3900   305.34331      637.30896      30070.215      0.99484732    -8228.2343    
      4000   305.05231      104.49995      30070.215      0.99484732    -8228.5911    
      4100   296.83037      338.90815      30070.215      0.99484732    -8240.1253    
      4200   308.80561      104.91656      30070.215      0.99484732    -8239.5979    
      4300   297.28938      14.060105      30070.215      0.99484732    -8331.6423    
      4400   294.74418     -326.59647      30070.215      0.99484732    -8345.1897    
      4500   300.03256     -500.65973      30070.215      0.99484732    -8296.8076    
      4600   295.51524     -119.98893      30070.215      0.99484732    -8250.5799    
      4700   304.73506     -409.83578      30070.215      0.99484732    -8227.1229    
      4800   306.58787     -543.04708      30070.215      0.99484732    -8227.2126    
      4900   292.18457     -270.67513      30070.215      0.99484732    -8247.8607    
      5000   303.05533     -134.88222      30070.215      0.99484732    -8216.308     
      5100   304.99114     -314.21036      30070.215      0.99484732    -8211.616     
      5200   292.30901     -794.13108      30070.215      0.99484732    -8271.6635    
      5300   292.7413       284.88127      30070.215      0.99484732    -8272.3278    
      5400   303.72117      57.608314      30070.215      0.99484732    -8210.1866    
      5500   297.03156     -39.202473      30070.215      0.99484732    -8162.42      
      5600   299.89523     -279.43501      30070.215      0.99484732    -8152.2332    
      5700   298.1286       237.39736      30070.215      0.99484732    -8155.487     
      5800   305.72968     -639.83063      30070.215      0.99484732    -8180.083     
      5900   294.20668     -460.3097       30070.215      0.99484732    -8242.6476    
      6000   300.83703     -699.53938      30070.215      0.99484732    -8330.1841    
      6100   294.50524      497.10693      30070.215      0.99484732    -8333.5783    
      6200   296.41274      85.663459      30070.215      0.99484732    -8327.1227    
      6300   300.22161     -39.094428      30070.215      0.99484732    -8312.033     
      6400   308.47402     -5.4338426      30070.215      0.99484732    -8232.1031    
      6500   303.52839      386.72884      30070.215      0.99484732    -8213.3034    
      6600   302.47686      210.02848      30070.215      0.99484732    -8234.3475    
      6700   301.89687     -172.02056      30070.215      0.99484732    -8249.6987    
      6800   302.38574     -261.51924      30070.215      0.99484732    -8255.0048    
      6900   301.84751     -204.05802      30070.215      0.99484732    -8240.3095    
      7000   302.30831      237.69978      30070.215      0.99484732    -8232.2808    
      7100   301.63128     -136.01285      30070.215      0.99484732    -8240.868     
      7200   285.60712     -304.19235      30070.215      0.99484732    -8272.4089    
      7300   300.66316     -577.42725      30070.215      0.99484732    -8191.7745    
      7400   303.82868      66.0667        30070.215      0.99484732    -8161.3161    
      7500   304.77607     -214.17294      30070.215      0.99484732    -8183.9755    
      7600   302.04194     -746.52324      30070.215      0.99484732    -8215.5298    
      7700   303.83533     -188.00132      30070.215      0.99484732    -8284.902     
      7800   296.90282     -1049.1881      30070.215      0.99484732    -8332.13      
      7900   304.65369      144.89398      30070.215      0.99484732    -8318.2476    
      8000   299.63046      104.04969      30070.215      0.99484732    -8306.9934    
      8100   296.04382     -474.5436       30070.215      0.99484732    -8246.3245    
      8200   303.16549     -50.293384      30070.215      0.99484732    -8185.6395    
      8300   303.59037     -245.14698      30070.215      0.99484732    -8202.5015    
      8400   302.34496     -284.97284      30070.215      0.99484732    -8252.9853    
      8500   300.02864     -359.50419      30070.215      0.99484732    -8293.7584    
      8600   297.22822     -528.95181      30070.215      0.99484732    -8290.518     
      8700   292.59656     -22.839084      30070.215      0.99484732    -8257.1598    
      8800   304.34334     -614.1105       30070.215      0.99484732    -8218.3791    
      8900   302.10278     -746.83132      30070.215      0.99484732    -8213.0167    
      9000   303.63978     -386.15563      30070.215      0.99484732    -8231.9817    
      9100   298.42795      139.7614       30070.215      0.99484732    -8263.8462    
      9200   296.98711     -330.50564      30070.215      0.99484732    -8302.3955    
      9300   294.67844     -209.79877      30070.215      0.99484732    -8313.5857    
      9400   290.24405     -461.26839      30070.215      0.99484732    -8285.6044    
      9500   304.61654     -362.1522       30070.215      0.99484732    -8242.662     
      9600   309.83339      383.37152      30070.215      0.99484732    -8215.6219    
      9700   295.60916     -388.89262      30070.215      0.99484732    -8224.4102    
      9800   294.08285     -661.92416      30070.215      0.99484732    -8268.5401    
      9900   292.60031     -367.56065      30070.215      0.99484732    -8295.4665    
     10000   298.27393      244.46606      30070.215      0.99484732    -8275.2626    
     10100   303.90626      282.13836      30070.215      0.99484732    -8216.3969    
     10200   305.30124     -199.74193      30070.215      0.99484732    -8181.1027    
     10300   308.46502     -138.82337      30070.215      0.99484732    -8175.5253    
     10400   298.90778     -25.664036      30070.215      0.99484732    -8257.4178    
     10500   296.66336      357.27731      30070.215      0.99484732    -8306.5129    
     10600   300.82976     -650.11651      30070.215      0.99484732    -8333.1942    
     10700   294.00561      802.56854      30070.215      0.99484732    -8353.5755    
     10800   290.94466     -150.43765      30070.215      0.99484732    -8389.4187    
     10900   289.83412      233.61448      30070.215      0.99484732    -8406.908     
     11000   299.70503     -338.59823      30070.215      0.99484732    -8335.9237    
     11100   292.86981     -506.72723      30070.215      0.99484732    -8272.9064    
     11200   307.01156      188.51169      30070.215      0.99484732    -8239.7704    
     11300   306.96507     -402.21763      30070.215      0.99484732    -8279.7064    
     11400   298.93825     -445.51609      30070.215      0.99484732    -8322.6547    
     11500   296.33732     -55.465843      30070.215      0.99484732    -8322.818     
     11600   312.27773      813.53369      30070.215      0.99484732    -8230.3781    
     11700   305.36126      314.20273      30070.215      0.99484732    -8243.3382    
     11800   297.50838     -313.77805      30070.215      0.99484732    -8307.2054    
     11900   300.44764     -213.18252      30070.215      0.99484732    -8320.8395    
     12000   298.38523     -13.160411      30070.215      0.99484732    -8314.7055    
     12100   295.93923     -354.66328      30070.215      0.99484732    -8323.4627    
     12200   296.5812       427.24447      30070.215      0.99484732    -8342.8321    
     12300   300.19501      423.7212       30070.215      0.99484732    -8337.884     
     12400   301.31775      3.5290273      30070.215      0.99484732    -8294.4434    
     12500   304.57769     -353.07444      30070.215      0.99484732    -8248.5285    
     12600   308.07031     -18.927383      30070.215      0.99484732    -8211.0565    
     12700   313.3487       517.8883       30070.215      0.99484732    -8163.7695    
     12800   300.41615      22.315924      30070.215      0.99484732    -8163.1824    
     12900   289.86248      338.95248      30070.215      0.99484732    -8224.2598    
     13000   293.85491      159.2486       30070.215      0.99484732    -8248.946     
     13100   298.02399     -190.92065      30070.215      0.99484732    -8256.3192    
     13200   296.25714     -252.19851      30070.215      0.99484732    -8226.52      
     13300   307.64363      308.32749      30070.215      0.99484732    -8160.855     
     13400   301.88554      594.92983      30070.215      0.99484732    -8193.8545    
     13500   301.5655       214.90259      30070.215      0.99484732    -8246.1565    
     13600   293.69409      52.880744      30070.215      0.99484732    -8278.66      
     13700   299.14318      290.12724      30070.215      0.99484732    -8276.6044    
     13800   300.05378      487.68069      30070.215      0.99484732    -8280.9341    
     13900   297.58617      522.37749      30070.215      0.99484732    -8298.5658    
     14000   296.72891      252.96299      30070.215      0.99484732    -8307.9667    
     14100   303.43122     -121.19025      30070.215      0.99484732    -8296.6343    
     14200   294.28507      464.23999      30070.215      0.99484732    -8312.1037    
     14300   290.34737     -44.962735      30070.215      0.99484732    -8319.4115    
     14400   299.52814     -26.100299      30070.215      0.99484732    -8285.6479    
     14500   311.04333      437.12186      30070.215      0.99484732    -8239.9072    
     14600   310.65879     -376.10196      30070.215      0.99484732    -8226.5385    
     14700   299.91159     -82.232354      30070.215      0.99484732    -8280.2724    
     14800   294.0993       316.15487      30070.215      0.99484732    -8337.3298    
     14900   297.63839     -125.25127      30070.215      0.99484732    -8344.9787    
     15000   297.55011      477.73806      30070.215      0.99484732    -8289.689     
     15100   305.55397      240.33237      30070.215      0.99484732    -8228.2537    
     15200   299.82391      143.06042      30070.215      0.99484732    -8230.4663    
     15300   301.50421      151.68642      30070.215      0.99484732    -8238.6765    
     15400   294.2105       88.752196      30070.215      0.99484732    -8292.9158    
     15500   294.76344      420.4195       30070.215      0.99484732    -8365.8596    
     15600   284.89932      809.80269      30070.215      0.99484732    -8344.2487    
     15700   308.52757      218.40301      30070.215      0.99484732    -8296.5361    
     15800   297.07222     -64.866541      30070.215      0.99484732    -8291.5002    
     15900   301.83372     -185.22425      30070.215      0.99484732    -8256.0561    
     16000   299.73318     -358.78374      30070.215      0.99484732    -8195.3475    
     16100   309.17119      156.54675      30070.215      0.99484732    -8187.6975    
     16200   302.75534     -149.1653       30070.215      0.99484732    -8225.1817    
     16300   302.73413      89.058689      30070.215      0.99484732    -8249.2711    
     16400   296.65181     -337.87913      30070.215      0.99484732    -8268.977     
     16500   301.90249     -455.51864      30070.215      0.99484732    -8238.6986    
     16600   309.6847      -205.73097      30070.215      0.99484732    -8168.6957    
     16700   306.5045       505.86846      30070.215      0.99484732    -8187.5688    
     16800   292.56788     -160.48695      30070.215      0.99484732    -8273.8218    
     16900   299.1119       25.767412      30070.215      0.99484732    -8269.3207    
     17000   303.77512     -403.83631      30070.215      0.99484732    -8242.1261    
     17100   312.91147      156.48315      30070.215      0.99484732    -8218.253     
     17200   292.33666     -113.50071      30070.215      0.99484732    -8246.7236    
     17300   303.64765      248.40271      30070.215      0.99484732    -8249.9052    
     17400   298.61722     -478.38495      30070.215      0.99484732    -8259.7447    
     17500   302.67084     -340.84415      30070.215      0.99484732    -8283.0887    
     17600   298.88242     -370.90388      30070.215      0.99484732    -8296.0163    
     17700   290.29705      73.040041      30070.215      0.99484732    -8286.3079    
     17800   306.1012      -361.34227      30070.215      0.99484732    -8236.4247    
     17900   299.81642      515.17318      30070.215      0.99484732    -8203.3311    
     18000   305.80868     -100.06004      30070.215      0.99484732    -8213.0718    
     18100   290.08262     -328.20787      30070.215      0.99484732    -8297.5023    
     18200   292.52705      107.12834      30070.215      0.99484732    -8304.7484    
     18300   301.08359      183.92912      30070.215      0.99484732    -8262.4196    
     18400   307.97575      477.40145      30070.215      0.99484732    -8207.7677    
     18500   307.68905      656.666        30070.215      0.99484732    -8217.4579    
     18600   304.61694      238.07941      30070.215      0.99484732    -8254.2964    
     18700   301.50353      412.28224      30070.215      0.99484732    -8283.8751    
     18800   299.87834     -307.55841      30070.215      0.99484732    -8291.6258    
     18900   302.80575     -36.142918      30070.215      0.99484732    -8265.2886    
     19000   308.64769     -504.88151      30070.215      0.99484732    -8189.2259    
     19100   306.09337      212.63792      30070.215      0.99484732    -8170.1869    
     19200   294.40152     -86.877015      30070.215      0.99484732    -8216.7443    
     19300   294.34631     -427.2377       30070.215      0.99484732    -8250.9272    
     19400   295.87584     -441.88518      30070.215      0.99484732    -8259.853     
     19500   303.42833     -19.632373      30070.215      0.99484732    -8188.3028    
     19600   304.83429     -756.15158      30070.215      0.99484732    -8174.0161    
     19700   301.38302     -235.46375      30070.215      0.99484732    -8195.3453    
     19800   300.58105     -280.03674      30070.215      0.99484732    -8242.7821    
     19900   295.84768     -438.96479      30070.215      0.99484732    -8290.267     
     20000   299.88394     -81.529276      30070.215      0.99484732    -8269.368     
     20100   311.37813     -109.82801      30070.215      0.99484732    -8183.408     
     20200   303.0678      -335.25846      30070.215      0.99484732    -8155.9208    
     20300   303.20703     -793.59218      30070.215      0.99484732    -8178.4152    
     20400   302.25259     -849.83793      30070.215      0.99484732    -8281.7841    
     20500   294.77631      409.52863      30070.215      0.99484732    -8321.6911    
     20600   295.88185      26.136173      30070.215      0.99484732    -8341.0943    
     20700   294.38056      389.87014      30070.215      0.99484732    -8310.6471    
     20800   300.6394      -640.28939      30070.215      0.99484732    -8226.617     
     20900   298.34815      330.23061      30070.215      0.99484732    -8205.0529    
     21000   304.47625      307.14181      30070.215      0.99484732    -8231.1727    
     21100   296.98503      146.04474      30070.215      0.99484732    -8286.2705    
     21200   300.52596      101.4995       30070.215      0.99484732    -8290.6541    
     21300   295.18811      331.05115      30070.215      0.99484732    -8289.5826    
     21400   299.46274     -57.53596       30070.215      0.99484732    -8294.2912    
     21500   305.73698     -262.64297      30070.215      0.99484732    -8297.9461    
     21600   297.19137     -204.13916      30070.215      0.99484732    -8297.5349    
     21700   301.30742     -14.571246      30070.215      0.99484732    -8237.3624    
     21800   298.74518      258.49991      30070.215      0.99484732    -8203.3835    
     21900   303.19589     -204.04495      30070.215      0.99484732    -8224.4071    
     22000   296.67318     -325.36362      30070.215      0.99484732    -8279.5988    
     22100   298.26757     -447.73029      30070.215      0.99484732    -8286.3187    
     22200   296.78232     -54.568562      30070.215      0.99484732    -8276.1756    
     22300   301.44476     -39.359262      30070.215      0.99484732    -8241.0645    
     22400   304.53733      396.53929      30070.215      0.99484732    -8194.2048    
     22500   296.50131      388.27629      30070.215      0.99484732    -8218.4305    
     22600   292.0268       277.6408       30070.215      0.99484732    -8307.3602    
     22700   299.14868      151.84161      30070.215      0.99484732    -8313.8399    
     22800   304.35289      35.939442      30070.215      0.99484732    -8290.9983    
     22900   302.45286      198.19872      30070.215      0.99484732    -8281.5318    
     23000   297.67885     -255.64294      30070.215      0.99484732    -8294.5708    
     23100   300.97432     -108.73546      30070.215      0.99484732    -8295.8574    
     23200   308.54132      505.66455      30070.215      0.99484732    -8245.9494    
     23300   302.27826      408.29225      30070.215      0.99484732    -8200.0612    
     23400   307.05719      94.18931       30070.215      0.99484732    -8202.1883    
     23500   293.62133      389.17318      30070.215      0.99484732    -8287.2084    
     23600   303.13759      117.86835      30070.215      0.99484732    -8319.2561    
     23700   298.70399     -281.0483       30070.215      0.99484732    -8287.5817    
     23800   304.23824     -354.63838      30070.215      0.99484732    -8256.8689    
     23900   296.07374     -350.62671      30070.215      0.99484732    -8265.0023    
     24000   302.03982      61.359974      30070.215      0.99484732    -8289.2299    
     24100   289.14821     -148.22899      30070.215      0.99484732    -8343.4092    
     24200   294.08949     -485.95323      30070.215      0.99484732    -8323.6091    
     24300   300.9722       23.939678      30070.215      0.99484732    -8251.3026    
     24400   304.25236      306.31617      30070.215      0.99484732    -8223.548     
     24500   298.16744      610.8913       30070.215      0.99484732    -8226.4736    
     24600   302.26594     -244.02313      30070.215      0.99484732    -8253.995     
     24700   285.79279     -410.12024      30070.215      0.99484732    -8340.171     
     24800   294.85064     -589.85492      30070.215      0.99484732    -8307.2123    
     24900   303.28262      276.37872      30070.215      0.99484732    -8250.9898    
     25000   296.08661      837.48786      30070.215      0.99484732    -8234.1119    
     25100   301.29502     -298.55972      30070.215      0.99484732    -8228.3524    
     25200   295.895        62.686858      30070.215      0.99484732    -8227.6325    
     25300   312.65629      484.17167      30070.215      0.99484732    -8152.1778    
     25400   300.27041      792.40209      30070.215      0.99484732    -8174.0825    
     25500   295.94556      320.73649      30070.215      0.99484732    -8236.9074    
     25600   295.39553      231.97708      30070.215      0.99484732    -8262.5069    
     25700   300.87135      636.39962      30070.215      0.99484732    -8276.1584    
     25800   300.94245      849.03298      30070.215      0.99484732    -8291.843     
     25900   296.42439     -513.48002      30070.215      0.99484732    -8317.7114    
     26000   294.89168     -43.891106      30070.215      0.99484732    -8328.4386    
     26100   293.86428      136.74853      30070.215      0.99484732    -8276.7013    
     26200   302.47101      398.34359      30070.215      0.99484732    -8220.6445    
     26300   296.77005      153.70352      30070.215      0.99484732    -8227.8694    
     26400   298.20019      364.29558      30070.215      0.99484732    -8275.126     
     26500   294.10941     -74.824836      30070.215      0.99484732    -8338.9859    
     26600   290.56206      177.89221      30070.215      0.99484732    -8319.6124    
     26700   308.10686      0.10745162     30070.215      0.99484732    -8303.777     
     26800   297.01903      78.5858        30070.215      0.99484732    -8334.7415    
     26900   299.57401     -56.853333      30070.215      0.99484732    -8342.1565    
     27000   297.3196      -199.27429      30070.215      0.99484732    -8310.5576    
     27100   304.82191      657.80935      30070.215      0.99484732    -8253.0733    
     27200   303.10422     -123.10281      30070.215      0.99484732    -8240.4714    
     27300   307.08898     -424.18818      30070.215      0.99484732    -8302.6526    
     27400   293.5272      -48.932598      30070.215      0.99484732    -8360.091     
     27500   298.05141     -319.55228      30070.215      0.99484732    -8341.2147    
     27600   298.04802     -161.12088      30070.215      0.99484732    -8286.7068    
     27700   306           -62.137445      30070.215      0.99484732    -8237.5104    
     27800   306.58907     -320.43253      30070.215      0.99484732    -8244.0721    
     27900   301.40226      72.689437      30070.215      0.99484732    -8253.8025    
     28000   297.05447      92.363906      30070.215      0.99484732    -8283.6741    
     28100   294.0236       6.2786741      30070.215      0.99484732    -8327.8695    
     28200   295.69131     -280.48501      30070.215      0.99484732    -8337.6961    
     28300   307.04239     -389.09625      30070.215      0.99484732    -8249.6837    
     28400   309.2045       456.20213      30070.215      0.99484732    -8209.824     
     28500   306.41333     -362.65806      30070.215      0.99484732    -8256.5586    
     28600   287.76025     -181.48259      30070.215      0.99484732    -8299.6858    
     28700   307.07891     -675.55589      30070.215      0.99484732    -8280.5492    
     28800   295.31621     -63.735988      30070.215      0.99484732    -8231.2118    
     28900   307.85676     -152.72076      30070.215      0.99484732    -8154.6629    
     29000   306.07533      116.67945      30070.215      0.99484732    -8170.53      
     29100   306.43694      98.912248      30070.215      0.99484732    -8231.1703    
     29200   299.30546      182.44553      30070.215      0.99484732    -8266.5422    
     29300   292.01348     -240.57525      30070.215      0.99484732    -8287.4865    
     29400   298.99791     -172.05746      30070.215      0.99484732    -8313.7357    
     29500   288.81451     -340.0943       30070.215      0.99484732    -8370.295     
     29600   308.60473     -538.13585      30070.215      0.99484732    -8365.6506    
     29700   299.38847     -650.63357      30070.215      0.99484732    -8311.9221    
     29800   302.24703     -774.92546      30070.215      0.99484732    -8242.5666    
     29900   295.09522     -430.12662      30070.215      0.99484732    -8214.7839    
     30000   311.29487      367.17672      30070.215      0.99484732    -8211.1214    
     30100   302.3894       38.041292      30070.215      0.99484732    -8288.036     
     30200   291.651        172.36601      30070.215      0.99484732    -8309.2232    
     30300   301.01757     -281.5166       30070.215      0.99484732    -8268.7064    
     30400   305.06652      292.32679      30070.215      0.99484732    -8235.0096    
     30500   286.39752      135.22933      30070.215      0.99484732    -8266.8817    
     30600   296.06536     -266.82722      30070.215      0.99484732    -8331.7626    
     30700   288.21786     -207.20971      30070.215      0.99484732    -8368.6264    
     30800   296.94951     -737.35268      30070.215      0.99484732    -8311.3882    
     30900   294.23921      21.272353      30070.215      0.99484732    -8276.6913    
     31000   294.39922     -230.09911      30070.215      0.99484732    -8258.7766    
     31100   301.44852      498.71024      30070.215      0.99484732    -8213.945     
     31200   305.38618      544.76526      30070.215      0.99484732    -8186.5082    
     31300   305.11606     -210.22064      30070.215      0.99484732    -8163.4992    
     31400   299.53362     -244.73613      30070.215      0.99484732    -8175.5458    
     31500   301.28497     -302.75062      30070.215      0.99484732    -8230.8404    
     31600   296.23332     -459.49648      30070.215      0.99484732    -8283.7928    
     31700   297.78595     -254.44574      30070.215      0.99484732    -8315.7388    
     31800   292.04689     -294.9057       30070.215      0.99484732    -8339.9847    
     31900   288.72296      345.61077      30070.215      0.99484732    -8314.0486    
     32000   294.67681      441.99501      30070.215      0.99484732    -8235.1175    
     32100   304.61113      119.52699      30070.215      0.99484732    -8189.1112    
     32200   304.48269      130.87626      30070.215      0.99484732    -8211.2346    
     32300   300.11767      131.76081      30070.215      0.99484732    -8268.7441    
     32400   297.75935      304.15533      30070.215      0.99484732    -8307.8155    
     32500   303.94772      108.43354      30070.215      0.99484732    -8312.8365    
     32600   299.19685     -80.884774      30070.215      0.99484732    -8304.6186    
     32700   299.25897     -227.08615      30070.215      0.99484732    -8266.1374    
     32800   293.10328     -151.9574       30070.215      0.99484732    -8231.2108    
     32900   311.5565       719.75109      30070.215      0.99484732    -8160.8838    
     33000   307.64259      430.18429      30070.215      0.99484732    -8137.3771    
     33100   295.84863     -440.66266      30070.215      0.99484732    -8224.867     
     33200   296.25334      219.01182      30070.215      0.99484732    -8227.6298    
     33300   299.68369     -66.594322      30070.215      0.99484732    -8215.9655    
     33400   306.79297      132.43736      30070.215      0.99484732    -8223.5882    
     33500   302.63676      586.21308      30070.215      0.99484732    -8243.8773    
     33600   301.20264     -376.41384      30070.215      0.99484732    -8316.022     
     33700   286.49839     -212.52254      30070.215      0.99484732    -8344.3628    
     33800   300.84926     -85.502244      30070.215      0.99484732    -8310.7865    
     33900   304.31558     -300.47432      30070.215      0.99484732    -8264.9847    
     34000   311.94878      444.51892      30070.215      0.99484732    -8195.1242    
     34100   305.78471      475.8819       30070.215      0.99484732    -8181.8803    
     34200   304.45824     -546.36221      30070.215      0.99484732    -8273.914     
     34300   301.55277      517.65663      30070.215      0.99484732    -8304.8204    
     34400   302.00914     -38.335554      30070.215      0.99484732    -8304.1662    
     34500   292.31272      200.70988      30070.215      0.99484732    -8267.302     
     34600   310.7635      -286.78126      30070.215      0.99484732    -8198.537     
     34700   302.23209      124.80674      30070.215      0.99484732    -8240.2656    
     34800   300.0086      -498.24706      30070.215      0.99484732    -8278.4551    
     34900   293.80771      161.73138      30070.215      0.99484732    -8277.9845    
     35000   298.39831     -315.45285      30070.215      0.99484732    -8251.8621    
     35100   302.98724     -326.95826      30070.215      0.99484732    -8212.4323    
     35200   314.83319      98.513946      30070.215      0.99484732    -8166.4118    
     35300   303.20638      464.74037      30070.215      0.99484732    -8226.4276    
     35400   304.34539      56.513535      30070.215      0.99484732    -8289.6285    
     35500   289.75418      524.96693      30070.215      0.99484732    -8296.0858    
     35600   290.91239      285.92515      30070.215      0.99484732    -8272.0344    
     35700   308.48552      192.91374      30070.215      0.99484732    -8207.6052    
     35800   305.35534      543.55139      30070.215      0.99484732    -8212.0804    
     35900   298.8352       21.31954       30070.215      0.99484732    -8313.9838    
     36000   296.44598     -122.90309      30070.215      0.99484732    -8328.8131    
     36100   305.64277      758.22416      30070.215      0.99484732    -8299.3429    
     36200   300.76764     -89.738292      30070.215      0.99484732    -8278.7667    
     36300   293.9303       825.90082      30070.215      0.99484732    -8262.0447    
     36400   300.68501     -476.44496      30070.215      0.99484732    -8249.3719    
     36500   308.14338     -357.30168      30070.215      0.99484732    -8214.9728    
     36600   309.75696     -66.28059       30070.215      0.99484732    -8181.5887    
     36700   305.06411      31.319133      30070.215      0.99484732    -8184.2387    
     36800   292.34207      432.38518      30070.215      0.99484732    -8203.6196    
     36900   302.04892      694.74892      30070.215      0.99484732    -8229.172     
     37000   295.19845      412.95806      30070.215      0.99484732    -8306.2731    
     37100   298.11228      327.04699      30070.215      0.99484732    -8334.4367    
     37200   310.96787      46.822341      30070.215      0.99484732    -8324.4617    
     37300   294.94948      391.28836      30070.215      0.99484732    -8286.1651    
     37400   299.51748      490.29178      30070.215      0.99484732    -8200.5572    
     37500   299.23876      351.3827       30070.215      0.99484732    -8171.1096    
     37600   312.25895      11.502764      30070.215      0.99484732    -8161.7406    
     37700   299.64503     -609.22927      30070.215      0.99484732    -8220.0826    
     37800   292.32701      101.52842      30070.215      0.99484732    -8289.8323    
     37900   299.55689     -256.61658      30070.215      0.99484732    -8275.4876    
     38000   305.43191     -616.54575      30070.215      0.99484732    -8231.0453    
     38100   303.59882     -237.3975       30070.215      0.99484732    -8194.7193    
     38200   301.36336      81.946409      30070.215      0.99484732    -8172.5332    
     38300   305.88109      193.87311      30070.215      0.99484732    -8161.2599    
     38400   299.84638     -490.51936      30070.215      0.99484732    -8241.7932    
     38500   288.64556     -202.31492      30070.215      0.99484732    -8289.7131    
     38600   299.41803      10.46626       30070.215      0.99484732    -8238.4714    
     38700   293.17307      69.642762      30070.215      0.99484732    -8192.3278    
     38800   304.87446      264.84784      30070.215      0.99484732    -8147.5282    
     38900   309.24833     -21.485454      30070.215      0.99484732    -8149.1937    
     39000   295.82032     -428.60921      30070.215      0.99484732    -8231.6182    
     39100   293.75337     -519.04659      30070.215      0.99484732    -8262.1119    
     39200   295.51837      642.47637      30070.215      0.99484732    -8241.9639    
     39300   307.84389      282.48767      30070.215      0.99484732    -8237.897     
     39400   297.30525     -226.53497      30070.215      0.99484732    -8295.5506    
     39500   287.35546      258.21835      30070.215      0.99484732    -8336.6561    
     39600   298.41803      600.41296      30070.215      0.99484732    -8299.9859    
     39700   294.05951      399.13254      30070.215      0.99484732    -8290.2148    
     39800   298.26698     -292.38364      30070.215      0.99484732    -8281.4741    
     39900   304.61939     -51.019114      30070.215      0.99484732    -8292.5725    
     40000   297.84013     -585.7604       30070.215      0.99484732    -8304.2696    
     40100   301.00935      72.547564      30070.215      0.99484732    -8318.4194    
     40200   289.55971     -4.8781093      30070.215      0.99484732    -8363.6579    
     40300   309.48408     -691.2189       30070.215      0.99484732    -8354.5748    
     40400   293.09604      98.669004      30070.215      0.99484732    -8321.0207    
     40500   293.42138      487.66485      30070.215      0.99484732    -8246.0166    
     40600   308.84544      22.520468      30070.215      0.99484732    -8207.9425    
     40700   293.86112     -100.05806      30070.215      0.99484732    -8236.5798    
     40800   294.60199     -117.95407      30070.215      0.99484732    -8235.8841    
     40900   313.36299      3.2566057      30070.215      0.99484732    -8160.9131    
     41000   305.3304       487.95084      30070.215      0.99484732    -8142.1926    
     41100   295.11249      683.06524      30070.215      0.99484732    -8196.0257    
     41200   306.69477      129.55788      30070.215      0.99484732    -8244.8329    
     41300   300.62961      15.428514      30070.215      0.99484732    -8251.3526    
     41400   303.08822     -205.60698      30070.215      0.99484732    -8245.1505    
     41500   299.75639      159.38719      30070.215      0.99484732    -8267.5469    
     41600   290.2344      -205.80248      30070.215      0.99484732    -8310.9017    
     41700   293.91059      21.161207      30070.215      0.99484732    -8267.8917    
     41800   298.64727     -160.09841      30070.215      0.99484732    -8200.5548    
     41900   305.10374      26.476824      30070.215      0.99484732    -8188.2932    
     42000   298.49184      378.2067       30070.215      0.99484732    -8206.1444    
     42100   293.95566      723.95472      30070.215      0.99484732    -8243.6991    
     42200   284.61906      725.50302      30070.215      0.99484732    -8288.0623    
     42300   298.90331     -378.44139      30070.215      0.99484732    -8323.5542    
     42400   297.47414      393.98572      30070.215      0.99484732    -8293.4694    
     42500   301.91878      975.33993      30070.215      0.99484732    -8238.139     
     42600   299.24955      174.24675      30070.215      0.99484732    -8234.5203    
     42700   293.33247      62.211292      30070.215      0.99484732    -8249.2254    
     42800   302.96913      208.16826      30070.215      0.99484732    -8248.0447    
     42900   294.97282      439.20178      30070.215      0.99484732    -8230.2696    
     43000   308.21568      209.31561      30070.215      0.99484732    -8169.0885    
     43100   306.94223     -69.218325      30070.215      0.99484732    -8164.6649    
     43200   295.66024      8.6294795      30070.215      0.99484732    -8207.6648    
     43300   294.2184      -325.27688      30070.215      0.99484732    -8271.9398    
     43400   296.85145     -23.903062      30070.215      0.99484732    -8287.7478    
     43500   303.03533      145.2947       30070.215      0.99484732    -8227.9301    
     43600   309.54429     -49.384447      30070.215      0.99484732    -8162.0094    
     43700   311.99651      268.75465      30070.215      0.99484732    -8197.8381    
     43800   292.65966      227.72217      30070.215      0.99484732    -8252.3446    
     43900   299.09516      51.239054      30070.215      0.99484732    -8244.7303    
     44000   301.27587     -84.792416      30070.215      0.99484732    -8228.3042    
     44100   296.15704     -27.438572      30070.215      0.99484732    -8261.9208    
     44200   296.78123     -377.72374      30070.215      0.99484732    -8290.0802    
     44300   297.73052     -44.645194      30070.215      0.99484732    -8309.8674    
     44400   303.12938      177.00814      30070.215      0.99484732    -8310.9798    
     44500   287.14645     -673.3656       30070.215      0.99484732    -8338.0376    
     44600   313.07883     -414.03208      30070.215      0.99484732    -8260.5132    
     44700   306.56815      34.665996      30070.215      0.99484732    -8247.9693    
     44800   294.68893     -94.171506      30070.215      0.99484732    -8271.6214    
     44900   298.23975     -183.60452      30070.215      0.99484732    -8257.6876    
     45000   315.94886      139.97694      30070.215      0.99484732    -8212.844     
     45100   306.87452     -163.46732      30070.215      0.99484732    -8225.9448    
     45200   304.40833      145.66351      30070.215      0.99484732    -8290.7039    
     45300   293.44618     -174.84901      30070.215      0.99484732    -8326.9868    
     45400   300.74001      288.71231      30070.215      0.99484732    -8294.529     
     45500   300.18039      273.82348      30070.215      0.99484732    -8267.2441    
     45600   304.87689     -316.31224      30070.215      0.99484732    -8259.3509    
     45700   304.44738      224.55322      30070.215      0.99484732    -8269.4495    
     45800   297.86707      320.18796      30070.215      0.99484732    -8308.1997    
     45900   285.70985      127.99726      30070.215      0.99484732    -8329.71      
     46000   299.88931      276.85569      30070.215      0.99484732    -8301.0722    
     46100   291.53028     -122.35992      30070.215      0.99484732    -8284.6622    
     46200   299.89025     -32.022077      30070.215      0.99484732    -8245.9115    
     46300   300.52558     -95.689502      30070.215      0.99484732    -8209.9627    
     46400   303.79562      31.841391      30070.215      0.99484732    -8203.5916    
     46500   296.79106     -543.82706      30070.215      0.99484732    -8235.9402    
     46600   292.74049      117.47927      30070.215      0.99484732    -8319.2483    
     46700   290.67859      86.962177      30070.215      0.99484732    -8312.4859    
     46800   303.52781      490.04835      30070.215      0.99484732    -8247.4886    
     46900   301.49112      119.11736      30070.215      0.99484732    -8246.4456    
     47000   293.47522     -207.99762      30070.215      0.99484732    -8284.9643    
     47100   299.19846     -270.25164      30070.215      0.99484732    -8275.6154    
     47200   305.50569     -73.484257      30070.215      0.99484732    -8252.2067    
     47300   302.46298      408.43283      30070.215      0.99484732    -8274.4652    
     47400   295.36028     -504.44003      30070.215      0.99484732    -8362.8264    
     47500   292.72223     -74.944113      30070.215      0.99484732    -8386.2081    
     47600   306.91284      251.95752      30070.215      0.99484732    -8337.7665    
     47700   303.369        233.04847      30070.215      0.99484732    -8316.5577    
     47800   299.84005     -106.86003      30070.215      0.99484732    -8289.1769    
     47900   306.17645     -27.115891      30070.215      0.99484732    -8178.6927    
     48000   307.08351      240.59918      30070.215      0.99484732    -8170.0288    
     48100   299.35285     -115.47617      30070.215      0.99484732    -8243.0798    
     48200   296.85135      901.38233      30070.215      0.99484732    -8281.3696    
     48300   301.15765     -181.34123      30070.215      0.99484732    -8304.1355    
     48400   296.93691      206.88281      30070.215      0.99484732    -8299.3405    
     48500   303.98767      164.08743      30070.215      0.99484732    -8247.9248    
     48600   309.03611     -61.187381      30070.215      0.99484732    -8212.8221    
     48700   297.47098      228.07084      30070.215      0.99484732    -8239.3691    
     48800   295.9225      -723.09434      30070.215      0.99484732    -8320.684     
     48900   296.60678     -158.59645      30070.215      0.99484732    -8342.3261    
     49000   295.8766      -834.18246      30070.215      0.99484732    -8294.455     
     49100   301.29084     -412.93485      30070.215      0.99484732    -8263.2829    
     49200   297.65248     -577.50397      30070.215      0.99484732    -8285.2394    
     49300   306.47712     -371.44862      30070.215      0.99484732    -8288.7037    
     49400   306.31613     -626.73179      30070.215      0.99484732    -8301.2818    
     49500   295.69439     -254.31236      30070.215      0.99484732    -8353.871     
     49600   298.52329     -807.75853      30070.215      0.99484732    -8377.6178    
     49700   295.85872     -276.23977      30070.215      0.99484732    -8319.0985    
     49800   307.51973      590.41922      30070.215      0.99484732    -8277.3468    
     49900   295.36028      160.73326      30070.215      0.99484732    -8305.0721    
     50000   297.93478      99.678926      30070.215      0.99484732    -8336.4715    
     50100   291.06515      67.913961      30070.215      0.99484732    -8345.0633    
     50200   303.39649      702.9462       30070.215      0.99484732    -8278.7961    
     50300   303.34228      192.79127      30070.215      0.99484732    -8248.6467    
     50400   302.68295      46.548608      30070.215      0.99484732    -8253.5802    
     50500   291.48253      131.22573      30070.215      0.99484732    -8314.6122    
     50600   295.14801     -315.66325      30070.215      0.99484732    -8357.248     
     50700   291.64208     -224.06725      30070.215      0.99484732    -8315.8003    
     50800   302.75799      614.59834      30070.215      0.99484732    -8271.5438    
     50900   288.64355      8.6079799      30070.215      0.99484732    -8274.6579    
     51000   302.78045      512.3211       30070.215      0.99484732    -8247.7409    
     51100   308.12693      339.48306      30070.215      0.99484732    -8190.539     
     51200   303.61462     -152.85991      30070.215      0.99484732    -8194.0169    
     51300   293.92417     -451.89083      30070.215      0.99484732    -8292.4476    
     51400   297.2044      -648.63652      30070.215      0.99484732    -8285.1332    
     51500   305.65133     -73.656299      30070.215      0.99484732    -8239.1023    
     51600   294.07624      550.81049      30070.215      0.99484732    -8219.4907    
     51700   310.73471     -1.0264842      30070.215      0.99484732    -8187.221     
     51800   301.75497     -26.082111      30070.215      0.99484732    -8192.1547    
     51900   296.16225     -724.21886      30070.215      0.99484732    -8235.1809    
     52000   291.59408     -568.31918      30070.215      0.99484732    -8239.9283    
     52100   310.83471      157.21918      30070.215      0.99484732    -8184.365     
     52200   304.74572      356.60389      30070.215      0.99484732    -8189.6339    
     52300   291.64425     -320.92551      30070.215      0.99484732    -8269.0747    
     52400   293.77458     -30.348707      30070.215      0.99484732    -8296.7747    
     52500   295.10754     -183.88412      30070.215      0.99484732    -8285.4392    
     52600   298.03452      111.3632       30070.215      0.99484732    -8263.0596    
     52700   303.19724      193.80784      30070.215      0.99484732    -8227.3414    
     52800   312.19114     -228.33198      30070.215      0.99484732    -8191.0693    
     52900   297.94266     -166.09402      30070.215      0.99484732    -8263.8279    
     53000   296.24808      40.695511      30070.215      0.99484732    -8310.4524    
     53100   297.97873      411.90157      30070.215      0.99484732    -8293.6144    
     53200   298.50427      194.07016      30070.215      0.99484732    -8249.9619    
     53300   311.81935      171.40637      30070.215      0.99484732    -8216.5377    
     53400   309.69833      321.28191      30070.215      0.99484732    -8201.5245    
     53500   299.71084     -82.340882      30070.215      0.99484732    -8263.0923    
     53600   301.14252     -618.13508      30070.215      0.99484732    -8310.1593    
     53700   301.48244      410.17816      30070.215      0.99484732    -8329.8023    
     53800   296.81309      544.35624      30070.215      0.99484732    -8325.4968    
     53900   303.74691      279.493        30070.215      0.99484732    -8245.6462    
     54000   309.6829       512.24633      30070.215      0.99484732    -8211.3565    
     54100   299.99245      126.46812      30070.215      0.99484732    -8245.9167    
     54200   294.21057     -349.76625      30070.215      0.99484732    -8291.5213    
     54300   296.23889     -13.521573      30070.215      0.99484732    -8303.5384    
     54400   306.01704      34.477233      30070.215      0.99484732    -8244.217     
     54500   300.11341      179.04702      30070.215      0.99484732    -8203.6054    
     54600   295.96467      248.04477      30070.215      0.99484732    -8207.2891    
     54700   301.31239     -3.3809998      30070.215      0.99484732    -8200.0934    
     54800   302.43499      253.94881      30070.215      0.99484732    -8166.4833    
     54900   313.30838     -141.82065      30070.215      0.99484732    -8153.6589    
     55000   295.83743     -244.5844       30070.215      0.99484732    -8221.3625    
     55100   299.71688      9.1990862      30070.215      0.99484732    -8252.3074    
     55200   296.43167      316.28312      30070.215      0.99484732    -8242.6028    
     55300   300.62454     -546.76458      30070.215      0.99484732    -8167.7869    
     55400   308.27648      848.11242      30070.215      0.99484732    -8117.6904    
     55500   300.93592      48.411127      30070.215      0.99484732    -8169.8081    
     55600   299.39016      307.45176      30070.215      0.99484732    -8223.9283    
     55700   299.702        497.80526      30070.215      0.99484732    -8265.572     
     55800   295.54582      488.57501      30070.215      0.99484732    -8305.0812    
     55900   297.85018      194.4952       30070.215      0.99484732    -8329.8492    
     56000   296.34661     -346.22617      30070.215      0.99484732    -8297.8386    
     56100   300.2525       78.108806      30070.215      0.99484732    -8262.4748    
     56200   302.34735     -24.510464      30070.215      0.99484732    -8273.9979    
     56300   299.72122     -307.06633      30070.215      0.99484732    -8306.9031    
     56400   292.82463      285.70044      30070.215      0.99484732    -8313.5577    
     56500   297.25931      298.22322      30070.215      0.99484732    -8262.7666    
     56600   302.92693      506.51033      30070.215      0.99484732    -8198.907     
     56700   298.93725      36.127918      30070.215      0.99484732    -8200.1327    
     56800   307.07849      630.02968      30070.215      0.99484732    -8224.4611    
     56900   300.2442       385.33293      30070.215      0.99484732    -8274.9209    
     57000   299.07337      143.86588      30070.215      0.99484732    -8280.9653    
     57100   299.08891     -79.996861      30070.215      0.99484732    -8267.4081    
     57200   295.30499     -150.71057      30070.215      0.99484732    -8235.2565    
     57300   305.97884     -347.76059      30070.215      0.99484732    -8164.582     
     57400   304.66289      54.418863      30070.215      0.99484732    -8162.5402    
     57500   302.86366     -474.89547      30070.215      0.99484732    -8224.0623    
     57600   303.51118     -223.89904      30070.215      0.99484732    -8242.3855    
     57700   294.33895      441.36512      30070.215      0.99484732    -8268.9221    
     57800   299.44883     -621.30445      30070.215      0.99484732    -8273.9392    
     57900   302.14158     -870.51111      30070.215      0.99484732    -8287.8733    
     58000   293.11466     -632.32895      30070.215      0.99484732    -8345.5671    
     58100   303.47138     -233.06361      30070.215      0.99484732    -8330.2657    
     58200   310.69896     -375.24024      30070.215      0.99484732    -8265.8716    
     58300   298.36997     -414.38226      30070.215      0.99484732    -8244.0674    
     58400   302.46548     -17.865476      30070.215      0.99484732    -8264.7893    
     58500   296.04286     -267.45763      30070.215      0.99484732    -8284.8974    
     58600   298.73908     -155.63733      30070.215      0.99484732    -8264.6937    
     58700   302.42918      109.56426      30070.215      0.99484732    -8216.1144    
     58800   302.2652       140.58964      30070.215      0.99484732    -8176.2687    
     58900   301.96063      700.08935      30070.215      0.99484732    -8209.1569    
     59000   309.41379     -330.31759      30070.215      0.99484732    -8297.4419    
     59100   298.08225      196.22196      30070.215      0.99484732    -8335.8104    
     59200   291.24025     -39.515159      30070.215      0.99484732    -8349.5671    
     59300   301.68549     -213.37095      30070.215      0.99484732    -8287.6416    
     59400   299.34431      259.37764      30070.215      0.99484732    -8243.23      
     59500   311.11274     -51.259081      30070.215      0.99484732    -8240.7116    
     59600   298.08535     -360.11178      30070.215      0.99484732    -8271.0852    
     59700   293.06368     -305.15944      30070.215      0.99484732    -8306.3755    
     59800   291.73674     -12.141701      30070.215      0.99484732    -8319.094     
     59900   298.51992     -526.76098      30070.215      0.99484732    -8312.7173    
     60000   299.06059      261.34848      30070.215      0.99484732    -8280.6152    
     60100   303.60588      692.25845      30070.215      0.99484732    -8246.1375    
     60200   289.22942      459.48386      30070.215      0.99484732    -8259.6018    
     60300   298.17085     -48.462906      30070.215      0.99484732    -8291.4671    
     60400   288.13611      751.03773      30070.215      0.99484732    -8317.3467    
     60500   295.17527      534.69592      30070.215      0.99484732    -8305.5889    
     60600   301.61051      447.17804      30070.215      0.99484732    -8238.79      
     60700   309.0667      -29.106919      30070.215      0.99484732    -8209.2187    
     60800   297.45815      135.14105      30070.215      0.99484732    -8226.9519    
     60900   293.93512     -4.9905156      30070.215      0.99484732    -8241.0161    
     61000   294.01818     -479.34913      30070.215      0.99484732    -8233.6906    
     61100   308.30935      462.76061      30070.215      0.99484732    -8179.7498    
     61200   306.01978     -79.891938      30070.215      0.99484732    -8209.4803    
     61300   298.41548     -143.81478      30070.215      0.99484732    -8274.367     
     61400   297.0194       296.53673      30070.215      0.99484732    -8278.6246    
     61500   297.75501      392.23699      30070.215      0.99484732    -8264.2919    
     61600   296.30332      95.884742      30070.215      0.99484732    -8207.4377    
     61700   308.46801      742.72863      30070.215      0.99484732    -8136.1403    
     61800   305.12516      400.43555      30070.215      0.99484732    -8185.5075    
     61900   299.77021     -448.17075      30070.215      0.99484732    -8231.137     
     62000   302.62845     -295.0393       30070.215      0.99484732    -8241.0535    
     62100   298.82765     -57.002821      30070.215      0.99484732    -8243.8278    
     62200   302.52684      348.50894      30070.215      0.99484732    -8218.0461    
     62300   314.18655      100.62426      30070.215      0.99484732    -8175.97      
     62400   301.74489     -216.85422      30070.215      0.99484732    -8190.8633    
     62500   293.66845      463.38104      30070.215      0.99484732    -8266.1785    
     62600   298.94626      1003.6988      30070.215      0.99484732    -8311.9614    
     62700   303.47981      266.76093      30070.215      0.99484732    -8346.5982    
     62800   296.44494     -87.563891      30070.215      0.99484732    -8368.0679    
     62900   302.5813       83.7042        30070.215      0.99484732    -8320.7261    
     63000   295.99137      194.9328       30070.215      0.99484732    -8302.6009    
     63100   292.51473      280.66143      30070.215      0.99484732    -8291.3128    
     63200   302.32832      147.26442      30070.215      0.99484732    -8227.5007    
     63300   305.8079      -264.4071       30070.215      0.99484732    -8199.5178    
     63400   308.21751      223.90075      30070.215      0.99484732    -8225.7799    
     63500   302.30525     -475.78092      30070.215      0.99484732    -8273.4891    
     63600   298.04643      68.380448      30070.215      0.99484732    -8275.0856    
     63700   293.11248      871.29099      30070.215      0.99484732    -8253.9187    
     63800   296.83729     -130.43587      30070.215      0.99484732    -8231.854     
     63900   303.08108      49.949229      30070.215      0.99484732    -8206.7924    
     64000   307.98446     -322.35136      30070.215      0.99484732    -8179.5816    
     64100   306.96766      266.57424      30070.215      0.99484732    -8161.0802    
     64200   296.60399     -329.64703      30070.215      0.99484732    -8213.4647    
     64300   298.62722     -58.515472      30070.215      0.99484732    -8229.5555    
     64400   300.81796     -102.13184      30070.215      0.99484732    -8232.7395    
     64500   300.39437     -378.50104      30070.215      0.99484732    -8239.1103    
     64600   301.95909     -70.860541      30070.215      0.99484732    -8220.2354    
     64700   313.82966     -609.5618       30070.215      0.99484732    -8161.9037    
     64800   299.43661     -361.90901      30070.215      0.99484732    -8173.2538    
     64900   304.36346     -256.72348      30070.215      0.99484732    -8242.9063    
     65000   292.33546      21.69309       30070.215      0.99484732    -8263.4175    
     65100   302.83073      147.91273      30070.215      0.99484732    -8253.5613    
     65200   300.6649      -609.6452       30070.215      0.99484732    -8242.6004    
     65300   305.24581      74.195157      30070.215      0.99484732    -8170.2014    
     65400   308.08105      143.95953      30070.215      0.99484732    -8134.6064    
     65500   302.15875      163.24995      30070.215      0.99484732    -8200.6227    
     65600   313.08594     -454.69458      30070.215      0.99484732    -8243.8717    
     65700   290.91417     -595.72896      30070.215      0.99484732    -8279.3253    
     65800   301.43006     -56.952965      30070.215      0.99484732    -8240.8058    
     65900   297.58518     -95.637436      30070.215      0.99484732    -8186.4963    
     66000   309.02833     -108.33481      30070.215      0.99484732    -8162.1501    
     66100   299.4003       169.74211      30070.215      0.99484732    -8176.0397    
     66200   298.44704     -131.72286      30070.215      0.99484732    -8208.9848    
     66300   295.55824     -793.90972      30070.215      0.99484732    -8235.2538    
     66400   299.84193     -336.42166      30070.215      0.99484732    -8219.3733    
     66500   314.07002      308.32354      30070.215      0.99484732    -8162.7288    
     66600   305.33369     -130.92307      30070.215      0.99484732    -8174.258     
     66700   296.6215      -395.83611      30070.215      0.99484732    -8256.3369    
     66800   306.06713     -362.65974      30070.215      0.99484732    -8283.4105    
     66900   298.94337     -321.033        30070.215      0.99484732    -8303.2586    
     67000   297.09415      244.91778      30070.215      0.99484732    -8277.5575    
     67100   304.25563      378.33871      30070.215      0.99484732    -8206.9082    
     67200   309.82626      833.79067      30070.215      0.99484732    -8174.2751    
     67300   299.68687      273.22055      30070.215      0.99484732    -8256.5135    
     67400   296.71967     -210.83278      30070.215      0.99484732    -8293.3665    
     67500   301.50686      81.52358       30070.215      0.99484732    -8267.1662    
     67600   303.95563     -85.309941      30070.215      0.99484732    -8231.4059    
     67700   303.10606      123.90073      30070.215      0.99484732    -8224.458     
     67800   293.45818      221.33438      30070.215      0.99484732    -8271.694     
     67900   295.32362      33.199773      30070.215      0.99484732    -8324.8055    
     68000   294.40398     -173.30212      30070.215      0.99484732    -8331.075     
     68100   293.18519      167.10264      30070.215      0.99484732    -8241.8782    
     68200   298.12984      40.590338      30070.215      0.99484732    -8212.6053    
     68300   297.73541     -88.94933       30070.215      0.99484732    -8209.2623    
     68400   306.82274     -440.76813      30070.215      0.99484732    -8184.8395    
     68500   305.17974      494.54705      30070.215      0.99484732    -8157.0184    
     68600   300.85918      21.992866      30070.215      0.99484732    -8208.6848    
     68700   300.17809     -169.76863      30070.215      0.99484732    -8281.4404    
     68800   302.32504     -183.74716      30070.215      0.99484732    -8317.5293    
     68900   299.08277      507.67752      30070.215      0.99484732    -8342.8255    
     69000   291.70556      71.464163      30070.215      0.99484732    -8374.2779    
     69100   300.51604     -426.53695      30070.215      0.99484732    -8350.4569    
     69200   305.682       -551.49948      30070.215      0.99484732    -8281.3471    
     69300   301.61792     -20.92599       30070.215      0.99484732    -8250.6905    
     69400   290.35003     -242.27781      30070.215      0.99484732    -8236.7573    
     69500   299.28621      84.236092      30070.215      0.99484732    -8160.3228    
     69600   311.76714     -256.24844      30070.215      0.99484732    -8151.3139    
     69700   301.68991     -277.43045      30070.215      0.99484732    -8208.184     
     69800   296.49982     -48.462018      30070.215      0.99484732    -8238.1996    
     69900   304.85126      125.2148       30070.215      0.99484732    -8248.1085    
     70000   298.09167      342.57195      30070.215      0.99484732    -8281.9395    
     70100   291.96749     -333.06575      30070.215      0.99484732    -8343.6099    
     70200   299.48237     -49.441891      30070.215      0.99484732    -8319.1299    
     70300   307.57794      174.31937      30070.215      0.99484732    -8223.1616    
     70400   301.56804     -233.2596       30070.215      0.99484732    -8235.9831    
     70500   300.97311     -590.43719      30070.215      0.99484732    -8264.2351    
     70600   309.23334     -643.46636      30070.215      0.99484732    -8302.218     
     70700   291.10155     -914.17559      30070.215      0.99484732    -8342.9838    
     70800   302.79171      258.99836      30070.215      0.99484732    -8258.5616    
     70900   315.8263       51.908839      30070.215      0.99484732    -8232.8384    
     71000   304.13067     -317.48485      30070.215      0.99484732    -8293.4336    
     71100   285.75653     -44.174818      30070.215      0.99484732    -8311.8913    
     71200   307.48505     -592.29453      30070.215      0.99484732    -8242.4375    
     71300   308.88966     -193.60518      30070.215      0.99484732    -8228.3702    
     71400   303.90846     -421.59576      30070.215      0.99484732    -8254.944     
     71500   296.72722      107.41203      30070.215      0.99484732    -8312.7728    
     71600   295.5373      -390.9576       30070.215      0.99484732    -8324.9748    
     71700   297.19239     -218.0672       30070.215      0.99484732    -8242.2436    
     71800   299.77123      26.984658      30070.215      0.99484732    -8190.4581    
     71900   296.4194       1009.7335      30070.215      0.99484732    -8221.1196    
     72000   300.04442     -390.68745      30070.215      0.99484732    -8265.436     
     72100   296.40126     -164.75375      30070.215      0.99484732    -8285.6953    
     72200   299.53359      332.41081      30070.215      0.99484732    -8259.54      
     72300   306.64415     -292.3779       30070.215      0.99484732    -8179.8224    
     72400   305.99934     -143.4892       30070.215      0.99484732    -8165.7524    
     72500   297.01207      233.97645      30070.215      0.99484732    -8203.1028    
     72600   298.96966     -66.670681      30070.215      0.99484732    -8244.9131    
     72700   301.65193      149.68372      30070.215      0.99484732    -8255.46      
     72800   305.42484      365.51787      30070.215      0.99484732    -8293.4824    
     72900   296.89592     -31.764791      30070.215      0.99484732    -8326.7716    
     73000   307.89266      261.95575      30070.215      0.99484732    -8289.6724    
     73100   300.67072     -411.06818      30070.215      0.99484732    -8264.0856    
     73200   298.17199     -1149.7254      30070.215      0.99484732    -8240.273     
     73300   307.77126      251.27481      30070.215      0.99484732    -8217.0272    
     73400   302.31656     -368.87705      30070.215      0.99484732    -8244.7187    
     73500   297.69024     -651.69089      30070.215      0.99484732    -8295.2943    
     73600   293.60552     -790.66518      30070.215      0.99484732    -8313.2947    
     73700   300.82586      422.49068      30070.215      0.99484732    -8215.1022    
     73800   297.38087     -146.91126      30070.215      0.99484732    -8181.0919    
     73900   309.33143      787.57175      30070.215      0.99484732    -8191.8717    
     74000   299.65454      110.61388      30070.215      0.99484732    -8273.4047    
     74100   291.2487      -160.05385      30070.215      0.99484732    -8293.1937    
     74200   307.63979      267.43463      30070.215      0.99484732    -8265.3339    
     74300   303.54705     -159.06139      30070.215      0.99484732    -8283.2076    
     74400   295.47116      215.86991      30070.215      0.99484732    -8374.5903    
     74500   292.26879      220.01413      30070.215      0.99484732    -8383.4865    
     74600   296.71728      64.408287      30070.215      0.99484732    -8346.3619    
     74700   300.80683      530.4746       30070.215      0.99484732    -8297.5116    
     74800   295.58082     -417.52767      30070.215      0.99484732    -8291.8095    
     74900   296.3469      -735.86234      30070.215      0.99484732    -8277.0412    
     75000   311.43562      41.868897      30070.215      0.99484732    -8239.2677    
     75100   306.10516     -231.46426      30070.215      0.99484732    -8259.3095    
     75200   310.00879     -9.560512       30070.215      0.99484732    -8298.6505    
     75300   296.7818       117.9987       30070.215      0.99484732    -8321.3612    
     75400   302.10318      557.57314      30070.215      0.99484732    -8307.7938    
     75500   304.24577     -65.479333      30070.215      0.99484732    -8274.5345    
     75600   304.23403     -136.12787      30070.215      0.99484732    -8209.0859    
     75700   307.43233     -598.37925      30070.215      0.99484732    -8193.9241    
     75800   290.91181     -703.78038      30070.215      0.99484732    -8247.905     
     75900   298.8317       198.61874      30070.215      0.99484732    -8287.2768    
     76000   294.13655     -53.59139       30070.215      0.99484732    -8351.6312    
     76100   290.44224      134.48538      30070.215      0.99484732    -8426.9907    
     76200   295.77351      216.75457      30070.215      0.99484732    -8399.6356    
     76300   296.92131      529.96592      30070.215      0.99484732    -8335.0512    
     76400   298.81273     -81.284166      30070.215      0.99484732    -8307.3578    
     76500   297.25542     -229.54732      30070.215      0.99484732    -8270.0603    
     76600   306.0246       252.21836      30070.215      0.99484732    -8206.5753    
     76700   304.0618      -236.05407      30070.215      0.99484732    -8201.3917    
     76800   301.81293     -408.51709      30070.215      0.99484732    -8233.8657    
     76900   303.43755     -120.80494      30070.215      0.99484732    -8277.0611    
     77000   297.70368     -102.93788      30070.215      0.99484732    -8296.4068    
     77100   296.10724     -243.68334      30070.215      0.99484732    -8291.7077    
     77200   299.04763      146.69893      30070.215      0.99484732    -8251.3458    
     77300   306.19574      104.94732      30070.215      0.99484732    -8206.2279    
     77400   301.68561     -434.15303      30070.215      0.99484732    -8226.5989    
     77500   302.84427     -592.44308      30070.215      0.99484732    -8280.9809    
     77600   296.68442     -652.05564      30070.215      0.99484732    -8351.4939    
     77700   295.30232     -822.2594       30070.215      0.99484732    -8389.2642    
     77800   296.75243      679.79789      30070.215      0.99484732    -8321.2199    
     77900   303.36422      6.1431448      30070.215      0.99484732    -8260.4328    
     78000   291.55141      366.94756      30070.215      0.99484732    -8241.426     
     78100   303.82328      484.91681      30070.215      0.99484732    -8241.0522    
     78200   297.08288      161.99101      30070.215      0.99484732    -8292.2068    
     78300   293.38875     -129.47109      30070.215      0.99484732    -8341.2953    
     78400   297.37612     -363.41882      30070.215      0.99484732    -8330.9892    
     78500   303.48985     -40.001701      30070.215      0.99484732    -8243.5026    
     78600   300.13966     -248.25859      30070.215      0.99484732    -8212.0905    
     78700   297.26112      50.270002      30070.215      0.99484732    -8190.7305    
     78800   312.15744      538.73788      30070.215      0.99484732    -8144.6702    
     78900   296.06814     -179.42296      30070.215      0.99484732    -8211.376     
     79000   300.75627     -36.661201      30070.215      0.99484732    -8268.0507    
     79100   301.71446      344.91995      30070.215      0.99484732    -8283.7693    
     79200   302.59164     -40.282185      30070.215      0.99484732    -8310.5113    
     79300   293.2023      -627.66441      30070.215      0.99484732    -8327.3571    
     79400   301.52127     -330.04697      30070.215      0.99484732    -8274.0787    
     79500   291.81893     -130.24564      30070.215      0.99484732    -8201.6979    
     79600   311.83637     -655.56065      30070.215      0.99484732    -8172.634     
     79700   291.28758     -580.27058      30070.215      0.99484732    -8193.7205    
     79800   299.54104      133.7858       30070.215      0.99484732    -8211.3689    
     79900   291.43618     -519.14849      30070.215      0.99484732    -8264.0702    
     80000   297.10358     -112.54627      30070.215      0.99484732    -8289.3075    
     80100   299.51266     -645.09574      30070.215      0.99484732    -8259.1203    
     80200   308.26331      100.30486      30070.215      0.99484732    -8179.612     
     80300   309.47497      478.79299      30070.215      0.99484732    -8167.0395    
     80400   302.4193       294.79803      30070.215      0.99484732    -8221.8028    
     80500   298.44537      130.81719      30070.215      0.99484732    -8248.4364    
     80600   302.7301       389.39781      30070.215      0.99484732    -8243.1377    
     80700   294.01527     -586.00308      30070.215      0.99484732    -8277.8838    
     80800   289.4689      -847.52163      30070.215      0.99484732    -8345.7683    
     80900   290.22125      152.72173      30070.215      0.99484732    -8315.8635    
     81000   301.62478      253.5452       30070.215      0.99484732    -8240.6346    
     81100   305.9573       295.15084      30070.215      0.99484732    -8236.7743    
     81200   304.73336      104.58678      30070.215      0.99484732    -8257.2094    
     81300   294.26297      63.053851      30070.215      0.99484732    -8314.6747    
     81400   293.59397      13.239896      30070.215      0.99484732    -8330.578     
     81500   297.77491      321.50516      30070.215      0.99484732    -8277.2728    
     81600   308.88898      873.64465      30070.215      0.99484732    -8206.5873    
     81700   302.73816     -147.40734      30070.215      0.99484732    -8227.2271    
     81800   291.63933     -202.90871      30070.215      0.99484732    -8325.2636    
     81900   296.70295     -203.10929      30070.215      0.99484732    -8338.9694    
     82000   293.42196     -214.5898       30070.215      0.99484732    -8297.7893    
     82100   298.78592      92.913702      30070.215      0.99484732    -8231.1048    
     82200   303.73861     -93.937729      30070.215      0.99484732    -8205.7526    
     82300   297.96745     -288.35709      30070.215      0.99484732    -8208.4507    
     82400   301.85391     -404.2331       30070.215      0.99484732    -8235.9644    
     82500   302.69223     -419.5026       30070.215      0.99484732    -8317.9918    
     82600   296.61237      171.76742      30070.215      0.99484732    -8332.1345    
     82700   294.09141      419.76995      30070.215      0.99484732    -8322.0126    
     82800   304.61382      251.2504       30070.215      0.99484732    -8254.3662    
     82900   309.02893      61.943677      30070.215      0.99484732    -8213.2693    
     83000   306.3186       323.15948      30070.215      0.99484732    -8242.1327    
     83100   302.92838      149.95078      30070.215      0.99484732    -8264.3033    
     83200   294.34989     -9.1745992      30070.215      0.99484732    -8303.4343    
     83300   291.46478      177.29281      30070.215      0.99484732    -8326.7631    
     83400   299.53232     -194.99447      30070.215      0.99484732    -8269.6281    
     83500   304.15721      604.48838      30070.215      0.99484732    -8224.2511    
     83600   305.46532      465.83079      30070.215      0.99484732    -8250.3424    
     83700   299.66972     -14.074804      30070.215      0.99484732    -8282.9424    
     83800   290.22138     -67.153351      30070.215      0.99484732    -8307.0607    
     83900   296.55226     -94.848212      30070.215      0.99484732    -8311.6424    
     84000   300.7149      -195.98734      30070.215      0.99484732    -8295.0342    
     84100   304.31329     -247.35814      30070.215      0.99484732    -8231.9231    
     84200   305.38395      557.39697      30070.215      0.99484732    -8203.657     
     84300   294.32955     -73.542765      30070.215      0.99484732    -8208.6614    
     84400   299.23894     -137.202        30070.215      0.99484732    -8228.065     
     84500   294.65158     -89.122739      30070.215      0.99484732    -8250.0331    
     84600   304.69834     -372.1681       30070.215      0.99484732    -8261.4852    
     84700   288.63425      245.21934      30070.215      0.99484732    -8304.386     
     84800   295.08865      37.292494      30070.215      0.99484732    -8302.7419    
     84900   302.23753      262.11758      30070.215      0.99484732    -8223.3085    
     85000   305.80284     -238.69557      30070.215      0.99484732    -8188.8587    
     85100   304.07002      374.2143       30070.215      0.99484732    -8203.7978    
     85200   304.80043      141.55076      30070.215      0.99484732    -8276.3681    
     85300   293.74649      272.38015      30070.215      0.99484732    -8302.2445    
     85400   300.06367     -165.82498      30070.215      0.99484732    -8278.8477    
     85500   303.27979      109.99379      30070.215      0.99484732    -8232.3714    
     85600   301.27137      328.89011      30070.215      0.99484732    -8206.1121    
     85700   298.43535      679.43678      30070.215      0.99484732    -8256.4661    
     85800   290.99804     -42.573967      30070.215      0.99484732    -8327.955     
     85900   293.62896      107.53783      30070.215      0.99484732    -8293.5142    
     86000   307.54076      314.08234      30070.215      0.99484732    -8234.0868    
     86100   298.84674      305.84452      30070.215      0.99484732    -8228.5591    
     86200   302.0457       72.874065      30070.215      0.99484732    -8241.727     
     86300   289.78497      418.7262       30070.215      0.99484732    -8320.858     
     86400   292.49929     -331.39844      30070.215      0.99484732    -8331.319     
     86500   303.2705       181.55575      30070.215      0.99484732    -8281.9738    
     86600   299.93806      491.58653      30070.215      0.99484732    -8270.5294    
     86700   298.33658     -216.36222      30070.215      0.99484732    -8255.8401    
     86800   297.93896      131.47047      30070.215      0.99484732    -8195.6785    
     86900   305.80698     -76.507814      30070.215      0.99484732    -8129.8911    
     87000   305.30272     -171.29717      30070.215      0.99484732    -8151.3476    
     87100   301.15497     -89.007469      30070.215      0.99484732    -8191.6774    
     87200   292.91107      21.580127      30070.215      0.99484732    -8219.7601    
     87300   295.16648      238.45456      30070.215      0.99484732    -8248.1929    
     87400   299.06624     -377.23327      30070.215      0.99484732    -8307.4375    
     87500   293.49451      263.93809      30070.215      0.99484732    -8317.5655    
     87600   298.83219      292.70115      30070.215      0.99484732    -8252.4805    
     87700   307.15364     -118.3355       30070.215      0.99484732    -8223.243     
     87800   302.79186     -239.61605      30070.215      0.99484732    -8231.1533    
     87900   302.38234      601.49363      30070.215      0.99484732    -8248.4954    
     88000   300.6539       170.11085      30070.215      0.99484732    -8278.9778    
     88100   302.0802       104.81655      30070.215      0.99484732    -8299.5145    
     88200   294.82993      263.86649      30070.215      0.99484732    -8307.5057    
     88300   300.20723      97.364095      30070.215      0.99484732    -8299.5097    
     88400   298.43946      490.54964      30070.215      0.99484732    -8269.0085    
     88500   303.71164      102.5839       30070.215      0.99484732    -8212.4892    
     88600   299.62372     -169.2378       30070.215      0.99484732    -8204.6258    
     88700   303.31725     -239.20013      30070.215      0.99484732    -8246.218     
     88800   294.94588     -387.46113      30070.215      0.99484732    -8323.0864    
     88900   299.60182     -646.30926      30070.215      0.99484732    -8323.6654    
     89000   306.25762      23.066752      30070.215      0.99484732    -8291.6299    
     89100   297.91383     -315.21937      30070.215      0.99484732    -8277.2586    
     89200   293.24137     -556.78562      30070.215      0.99484732    -8248.3923    
     89300   310.31978     -554.96631      30070.215      0.99484732    -8169.3853    
     89400   301.70579     -1125.9497      30070.215      0.99484732    -8164.3055    
     89500   302.97079     -294.40234      30070.215      0.99484732    -8213.4682    
     89600   294.81805      37.24978       30070.215      0.99484732    -8282.2384    
     89700   299.01007      447.12822      30070.215      0.99484732    -8294.8593    
     89800   297.58415      265.1859       30070.215      0.99484732    -8316.9942    
     89900   298.96986     -85.860211      30070.215      0.99484732    -8308.2631    
     90000   301.38257     -445.61205      30070.215      0.99484732    -8250.7391    
     90100   303.44255     -78.245605      30070.215      0.99484732    -8200.6194    
     90200   291.37633      506.1664       30070.215      0.99484732    -8218.7821    
     90300   291.07876      188.4968       30070.215      0.99484732    -8262.5551    
     90400   297.14855      223.5704       30070.215      0.99484732    -8250.1554    
     90500   300.21181      347.73898      30070.215      0.99484732    -8169.5773    
     90600   299.63632      279.22918      30070.215      0.99484732    -8141.3605    
     90700   294.82208     -345.39998      30070.215      0.99484732    -8190.3953    
     90800   295.41075     -142.25502      30070.215      0.99484732    -8233.3435    
     90900   300.18906      514.96406      30070.215      0.99484732    -8255.0912    
     91000   294.5738       480.79743      30070.215      0.99484732    -8258.6849    
     91100   295.25693      223.47563      30070.215      0.99484732    -8233.2608    
     91200   306.16041      299.3564       30070.215      0.99484732    -8213.0123    
     91300   299.47206     -438.12537      30070.215      0.99484732    -8254.0234    
     91400   296.88494     -218.27762      30070.215      0.99484732    -8286.6516    
     91500   295.84245     -650.11171      30070.215      0.99484732    -8346.9833    
     91600   289.22716      113.77651      30070.215      0.99484732    -8340.6068    
     91700   297.69209      442.44597      30070.215      0.99484732    -8261.8       
     91800   304.72899      35.184838      30070.215      0.99484732    -8222.9312    
     91900   296.20507      268.88858      30070.215      0.99484732    -8190.1829    
     92000   300.14377      653.07472      30070.215      0.99484732    -8156.9037    
     92100   301.06171     -78.309933      30070.215      0.99484732    -8173.5525    
     92200   300.2554       41.295424      30070.215      0.99484732    -8247.3848    
     92300   295.33688      32.307837      30070.215      0.99484732    -8279.9428    
     92400   294.83085     -59.518318      30070.215      0.99484732    -8265.1049    
     92500   303.21924     -719.01817      30070.215      0.99484732    -8204.5147    
     92600   305.98019     -522.36308      30070.215      0.99484732    -8131.6548    
     92700   305.07705     -432.61045      30070.215      0.99484732    -8154.3879    
     92800   300.53465     -171.08129      30070.215      0.99484732    -8187.0968    
     92900   306.26463     -143.07178      30070.215      0.99484732    -8218.1861    
     93000   296.94006      158.23476      30070.215      0.99484732    -8248.929     
     93100   297.39742     -225.93245      30070.215      0.99484732    -8304.546     
     93200   296.09165     -15.109108      30070.215      0.99484732    -8381.4826    
     93300   295.57347     -37.621679      30070.215      0.99484732    -8385.1936    
     93400   294.03221      237.51312      30070.215      0.99484732    -8320.5568    
     93500   295.22843      778.29673      30070.215      0.99484732    -8290.9296    
     93600   295.27468     -169.41468      30070.215      0.99484732    -8291.0985    
     93700   302.42414      74.158445      30070.215      0.99484732    -8263.4426    
     93800   304.42285      322.39629      30070.215      0.99484732    -8210.8507    
     93900   309.24779      434.65052      30070.215      0.99484732    -8134.5046    
     94000   299.80984      49.532691      30070.215      0.99484732    -8154.7448    
     94100   295.9105       68.38495       30070.215      0.99484732    -8220.0668    
     94200   307.80244     -131.01083      30070.215      0.99484732    -8240.9342    
     94300   301.55289     -356.53135      30070.215      0.99484732    -8254.8115    
     94400   298.52279     -68.947963      30070.215      0.99484732    -8261.5827    
     94500   303.54419     -639.26986      30070.215      0.99484732    -8255.9913    
     94600   307.50544      403.47929      30070.215      0.99484732    -8202.9274    
     94700   307.54912      377.18934      30070.215      0.99484732    -8175.4141    
     94800   292.0766       173.52571      30070.215      0.99484732    -8247.2407    
     94900   295.02049      365.649        30070.215      0.99484732    -8256.6783    
     95000   305.97282      93.449506      30070.215      0.99484732    -8231.2915    
     95100   301.38077      163.12814      30070.215      0.99484732    -8245.3891    
     95200   303.86937      77.258716      30070.215      0.99484732    -8277.0612    
     95300   296.4306      -287.38961      30070.215      0.99484732    -8288.0915    
     95400   302.48044      328.49431      30070.215      0.99484732    -8289.6662    
     95500   302.35079     -295.92639      30070.215      0.99484732    -8395.3403    
     95600   290.28274     -294.90985      30070.215      0.99484732    -8417.8299    
     95700   296.35187     -98.070334      30070.215      0.99484732    -8347.6885    
     95800   300.39278      66.588449      30070.215      0.99484732    -8290.0669    
     95900   301.35376     -29.899651      30070.215      0.99484732    -8259.4621    
     96000   310.09846      167.38245      30070.215      0.99484732    -8261.4599    
     96100   295.82236      297.57895      30070.215      0.99484732    -8340.5153    
     96200   291.08884      334.4043       30070.215      0.99484732    -8354.4206    
     96300   299.747       -283.23132      30070.215      0.99484732    -8316.702     
     96400   295.60178     -496.74407      30070.215      0.99484732    -8295.2591    
     96500   299.38688     -352.22219      30070.215      0.99484732    -8279.5164    
     96600   301.79539     -418.78797      30070.215      0.99484732    -8292.6789    
     96700   293.00052      720.65593      30070.215      0.99484732    -8364.5864    
     96800   294.54044     -147.41102      30070.215      0.99484732    -8424.4244    
     96900   287.30717     -126.04947      30070.215      0.99484732    -8391.3608    
     97000   296.45666     -693.23683      30070.215      0.99484732    -8308.6036    
     97100   295.69113      210.68803      30070.215      0.99484732    -8254.1159    
     97200   299.24714     -668.29893      30070.215      0.99484732    -8194.7141    
     97300   306.46481     -211.95458      30070.215      0.99484732    -8173.1115    
     97400   299.1931      -719.60495      30070.215      0.99484732    -8212.4098    
     97500   299.37765     -352.50429      30070.215      0.99484732    -8272.4034    
     97600   288.80512      32.421931      30070.215      0.99484732    -8326.4517    
     97700   280.96736      702.86892      30070.215      0.99484732    -8408.321     
     97800   297.06873     -424.17753      30070.215      0.99484732    -8431.8464    
     97900   295.76196      503.00008      30070.215      0.99484732    -8363.2424    
     98000   289.05333      154.2634       30070.215      0.99484732    -8311.9028    
     98100   298.99322     -277.21446      30070.215      0.99484732    -8238.8602    
     98200   303.45609      1058.5868      30070.215      0.99484732    -8186.2096    
     98300   299.73698      578.24979      30070.215      0.99484732    -8188.8882    
     98400   298.32032      88.27281       30070.215      0.99484732    -8223.3192    
     98500   297.1122       354.44548      30070.215      0.99484732    -8268.7816    
     98600   291.73397     -148.38825      30070.215      0.99484732    -8323.0349    
     98700   294.5219       793.12788      30070.215      0.99484732    -8301.7008    
     98800   302.19668      381.02843      30070.215      0.99484732    -8223.6847    
     98900   303.65263      127.65785      30070.215      0.99484732    -8216.6103    
     99000   303.44975      217.866        30070.215      0.99484732    -8256.2815    
     99100   289.27072     -94.171176      30070.215      0.99484732    -8308.4944    
     99200   303.82819     -253.53325      30070.215      0.99484732    -8283.3086    
     99300   295.75157      144.03574      30070.215      0.99484732    -8282.1041    
     99400   297.90662     -242.84674      30070.215      0.99484732    -8322.1484    
     99500   294.33921     -264.26338      30070.215      0.99484732    -8343.9176    
     99600   302.41964      36.760227      30070.215      0.99484732    -8255.2544    
     99700   308.53399      186.52673      30070.215      0.99484732    -8216.2085    
     99800   298.44058     -47.978053      30070.215      0.99484732    -8272.5784    
     99900   302.43201     -394.20219      30070.215      0.99484732    -8317.7258    
    100000   297.09721     -67.622928      30070.215      0.99484732    -8335.3229    
    100100   305.42078      51.795476      30070.215      0.99484732    -8356.4616    
    100200   288.81763      249.70882      30070.215      0.99484732    -8423.5516    
    100300   292.09334      816.67648      30070.215      0.99484732    -8409.488     
    100400   295.64365      314.9744       30070.215      0.99484732    -8323.8587    
    100500   301.6401       891.41954      30070.215      0.99484732    -8280.7299    
    100600   295.47541      45.864587      30070.215      0.99484732    -8282.2532    
    100700   297.87733      62.944725      30070.215      0.99484732    -8273.3464    
    100800   303.82624     -293.39646      30070.215      0.99484732    -8215.2165    
    100900   305.63726      452.68779      30070.215      0.99484732    -8182.1845    
    101000   295.02547     -533.41238      30070.215      0.99484732    -8249.5026    
    101100   300.30882     -327.72187      30070.215      0.99484732    -8293.6249    
    101200   301.78811      365.44767      30070.215      0.99484732    -8285.8136    
    101300   301.45361      153.11138      30070.215      0.99484732    -8304.0351    
    101400   287.0433       170.45194      30070.215      0.99484732    -8332.9144    
    101500   291.05077      53.982114      30070.215      0.99484732    -8364.9339    
    101600   293.61983     -299.54778      30070.215      0.99484732    -8368.5553    
    101700   296.31539     -196.23061      30070.215      0.99484732    -8312.0938    
    101800   303.87599     -243.95392      30070.215      0.99484732    -8262.6239    
    101900   298.21089      57.382295      30070.215      0.99484732    -8248.7419    
    102000   303.85129      226.50472      30070.215      0.99484732    -8217.6946    
    102100   304.83804      79.687244      30070.215      0.99484732    -8225.8334    
    102200   297.88351     -89.639603      30070.215      0.99484732    -8276.1311    
    102300   300.93993     -312.84474      30070.215      0.99484732    -8297.821     
    102400   303.19309      221.34933      30070.215      0.99484732    -8291.7947    
    102500   294.21915      148.15772      30070.215      0.99484732    -8330.2283    
    102600   297.89193     -489.84098      30070.215      0.99484732    -8346.0689    
    102700   300.76314     -319.96382      30070.215      0.99484732    -8290.5027    
    102800   300.5852       581.52432      30070.215      0.99484732    -8219.5054    
    102900   303.22301      429.02218      30070.215      0.99484732    -8218.5235    
    103000   303.24617     -295.73954      30070.215      0.99484732    -8267.2807    
    103100   292.65392     -540.05887      30070.215      0.99484732    -8297.1167    
    103200   300.29457     -4.5702663      30070.215      0.99484732    -8295.475     
    103300   296.1556       327.76965      30070.215      0.99484732    -8296.7344    
    103400   302.62058     -301.52834      30070.215      0.99484732    -8277.5198    
    103500   299.34772     -100.57924      30070.215      0.99484732    -8277.0841    
    103600   290.26363     -145.28815      30070.215      0.99484732    -8266.0946    
    103700   304.24499      511.1982       30070.215      0.99484732    -8189.0112    
    103800   304.82555     -149.34862      30070.215      0.99484732    -8204.8906    
    103900   298.95729     -473.02144      30070.215      0.99484732    -8238.9896    
    104000   303.08464     -555.7654       30070.215      0.99484732    -8235.9202    
    104100   308.29154     -32.326744      30070.215      0.99484732    -8228.0462    
    104200   299.26412      304.10851      30070.215      0.99484732    -8317.5666    
    104300   295.75241      426.13565      30070.215      0.99484732    -8356.0131    
    104400   299.65231      412.59638      30070.215      0.99484732    -8343.3779    
    104500   301.79972     -305.94196      30070.215      0.99484732    -8295.3072    
    104600   304.56064      383.3348       30070.215      0.99484732    -8226.51      
    104700   301.36352      559.07965      30070.215      0.99484732    -8223.7455    
    104800   299.43445     -428.32992      30070.215      0.99484732    -8258.4943    
    104900   302.21456     -135.48761      30070.215      0.99484732    -8266.8301    
    105000   294.66704      222.96744      30070.215      0.99484732    -8288.75      
    105100   291.89882      122.65279      30070.215      0.99484732    -8300.715     
    105200   303.24933      659.22442      30070.215      0.99484732    -8216.6903    
    105300   297.43278      578.79918      30070.215      0.99484732    -8191.6003    
    105400   310.33862      138.98054      30070.215      0.99484732    -8215.5694    
    105500   297.56568      187.14051      30070.215      0.99484732    -8286.3285    
    105600   297.81127      118.3705       30070.215      0.99484732    -8294.7506    
    105700   296.69732      179.20137      30070.215      0.99484732    -8270.4583    
    105800   300.02078     -60.90662       30070.215      0.99484732    -8223.2318    
    105900   303.91256      413.22811      30070.215      0.99484732    -8178.1353    
    106000   305.93102     -104.67755      30070.215      0.99484732    -8187.5389    
    106100   298.61503      42.037801      30070.215      0.99484732    -8215.015     
    106200   305.06798      560.4467       30070.215      0.99484732    -8228.5773    
    106300   304.33805      151.97036      30070.215      0.99484732    -8257.4398    
    106400   291.35102     -342.46634      30070.215      0.99484732    -8308.1764    
    106500   301.75228     -362.40813      30070.215      0.99484732    -8304.6575    
    106600   309.52359     -160.68164      30070.215      0.99484732    -8231.9752    
    106700   298.46835      237.70967      30070.215      0.99484732    -8185.0372    
    106800   309.18253     -307.81696      30070.215      0.99484732    -8188.3385    
    106900   301.93138     -137.42741      30070.215      0.99484732    -8252.7018    
    107000   290.02146     -788.31696      30070.215      0.99484732    -8298.8089    
    107100   292.71457     -320.43304      30070.215      0.99484732    -8269.6151    
    107200   301.90618     -427.49551      30070.215      0.99484732    -8216.5595    
    107300   296.73226      148.1804       30070.215      0.99484732    -8178.6644    
    107400   298.62027     -580.68463      30070.215      0.99484732    -8171.1249    
    107500   294.96839      318.90516      30070.215      0.99484732    -8181.2027    
    107600   299.34803      752.77989      30070.215      0.99484732    -8220.1939    
    107700   296.45398     -264.29446      30070.215      0.99484732    -8286.8921    
    107800   289.1802      -108.52426      30070.215      0.99484732    -8306.0078    
    107900   299.09495      553.49773      30070.215      0.99484732    -8232.9484    
    108000   305.70006      580.34246      30070.215      0.99484732    -8218.0061    
    108100   302.23285     -653.52186      30070.215      0.99484732    -8256.8323    
    108200   301.70397     -810.92093      30070.215      0.99484732    -8272.5653    
    108300   299.90159     -155.03         30070.215      0.99484732    -8225.3064    
    108400   310.25947      530.28916      30070.215      0.99484732    -8146.317     
    108500   299.13761      140.54272      30070.215      0.99484732    -8180.886     
    108600   291.94811      165.07379      30070.215      0.99484732    -8201.9656    
    108700   304.61642     -142.09968      30070.215      0.99484732    -8189.6527    
    108800   304.09046      478.5129       30070.215      0.99484732    -8218.4752    
    108900   297.20666      130.34683      30070.215      0.99484732    -8294.464     
    109000   299.95261      207.67435      30070.215      0.99484732    -8299.2879    
    109100   296.62718      102.55189      30070.215      0.99484732    -8305.3687    
    109200   299.25771      796.42371      30070.215      0.99484732    -8284.4948    
    109300   304.71029     -626.9348       30070.215      0.99484732    -8235.0822    
    109400   302.98941      54.200206      30070.215      0.99484732    -8195.8676    
    109500   310.54593      983.04309      30070.215      0.99484732    -8132.5171    
    109600   301.51827     -298.29299      30070.215      0.99484732    -8149.8168    
    109700   309.49312     -506.09193      30070.215      0.99484732    -8238.5787    
    109800   302.05131      611.18739      30070.215      0.99484732    -8274.2548    
    109900   292.7255      -98.539864      30070.215      0.99484732    -8276.8353    
    110000   301.02465      395.52787      30070.215      0.99484732    -8223.5085    
    110100   302.90823      31.010379      30070.215      0.99484732    -8190.0968    
    110200   292.46444      310.90555      30070.215      0.99484732    -8209.6706    
    110300   297.01212     -452.68837      30070.215      0.99484732    -8312.6008    
    110400   288.24719      32.541917      30070.215      0.99484732    -8320.1975    
    110500   299.59588      71.769643      30070.215      0.99484732    -8246.9923    
    110600   303.28902      745.63324      30070.215      0.99484732    -8204.7971    
    110700   306.23662      11.525975      30070.215      0.99484732    -8211.1323    
    110800   297.40329     -192.37628      30070.215      0.99484732    -8272.3676    
    110900   287.88983     -229.72308      30070.215      0.99484732    -8293.8105    
    111000   294.76627     -315.64568      30070.215      0.99484732    -8243.7224    
    111100   289.59431      351.18856      30070.215      0.99484732    -8219.614     
    111200   305.78185      69.451834      30070.215      0.99484732    -8211.0625    
    111300   299.47609      143.69998      30070.215      0.99484732    -8231.2539    
    111400   294.046       -386.48757      30070.215      0.99484732    -8314.6386    
    111500   300.40059     -190.66647      30070.215      0.99484732    -8319.029     
    111600   295.7768      -54.813932      30070.215      0.99484732    -8302.3899    
    111700   301.76692      114.39974      30070.215      0.99484732    -8274.1033    
    111800   313.6149       774.79638      30070.215      0.99484732    -8179.8601    
    111900   308.21535     -121.17983      30070.215      0.99484732    -8213.6608    
    112000   299.72375     -196.47766      30070.215      0.99484732    -8243.2106    
    112100   300.86557      58.160786      30070.215      0.99484732    -8259.0589    
    112200   295.54424     -266.26846      30070.215      0.99484732    -8285.1324    
    112300   294.5805      -18.370619      30070.215      0.99484732    -8243.9225    
    112400   305.54812      181.38299      30070.215      0.99484732    -8168.6993    
    112500   309.16481     -467.25187      30070.215      0.99484732    -8177.797     
    112600   301.15149     -324.69101      30070.215      0.99484732    -8225.8631    
    112700   295.43155      20.01462       30070.215      0.99484732    -8250.1379    
    112800   300.47837     -376.63438      30070.215      0.99484732    -8243.949     
    112900   294.86254     -271.98973      30070.215      0.99484732    -8242.3383    
    113000   303.71886     -168.85668      30070.215      0.99484732    -8215.1329    
    113100   298.91635     -273.88172      30070.215      0.99484732    -8202.3781    
    113200   299.54075      22.645825      30070.215      0.99484732    -8246.0211    
    113300   297.66679     -217.26595      30070.215      0.99484732    -8317.7985    
    113400   290.25408     -655.74511      30070.215      0.99484732    -8320.6405    
    113500   305.91079     -252.6662       30070.215      0.99484732    -8260.8644    
    113600   297.36923     -611.18312      30070.215      0.99484732    -8225.1012    
    113700   303.80355     -356.49543      30070.215      0.99484732    -8214.1726    
    113800   302.42449     -782.59793      30070.215      0.99484732    -8225.4984    
    113900   302.94326     -332.77581      30070.215      0.99484732    -8235.4727    
    114000   301.58        -537.69855      30070.215      0.99484732    -8250.8974    
    114100   305.11294     -484.08583      30070.215      0.99484732    -8261.2799    
    114200   296.58244     -696.01539      30070.215      0.99484732    -8279.0323    
    114300   304.74638     -652.36818      30070.215      0.99484732    -8270.2073    
    114400   296.38619     -792.46113      30070.215      0.99484732    -8262.3648    
    114500   303.22159     -62.928008      30070.215      0.99484732    -8228.505     
    114600   298.42815      521.95914      30070.215      0.99484732    -8210.4863    
    114700   302.90154      330.47302      30070.215      0.99484732    -8266.5012    
    114800   292.08533      7.5630587      30070.215      0.99484732    -8312.284     
    114900   290.99212     -613.60487      30070.215      0.99484732    -8274.1515    
    115000   301.8646      -37.480234      30070.215      0.99484732    -8194.7153    
    115100   291.80712      898.64341      30070.215      0.99484732    -8188.6415    
    115200   300.87201     -305.56009      30070.215      0.99484732    -8164.0317    
    115300   304.75585     -356.60405      30070.215      0.99484732    -8138.6523    
    115400   304.72366      715.19303      30070.215      0.99484732    -8159.303     
    115500   295.74986      175.25144      30070.215      0.99484732    -8236.0868    
    115600   302.31523     -74.326544      30070.215      0.99484732    -8252.4455    
    115700   295.38109      211.989        30070.215      0.99484732    -8250.3248    
    115800   298.18031      128.07114      30070.215      0.99484732    -8204.7843    
    115900   311.78173      316.49662      30070.215      0.99484732    -8139.2116    
    116000   303.21702     -453.32255      30070.215      0.99484732    -8170.8621    
    116100   301.68849     -8.2950751      30070.215      0.99484732    -8214.9102    
    116200   303.37877     -433.61893      30070.215      0.99484732    -8235.0418    
    116300   301.01314     -395.6612       30070.215      0.99484732    -8253.6921    
    116400   299.31365     -170.37133      30070.215      0.99484732    -8271.4068    
    116500   295.25271      16.857921      30070.215      0.99484732    -8279.5902    
    116600   299.45059      300.84335      30070.215      0.99484732    -8245.7592    
    116700   299.27117      107.44119      30070.215      0.99484732    -8200.0692    
    116800   308.89084      141.47658      30070.215      0.99484732    -8181.6714    
    116900   293.45996     -130.24066      30070.215      0.99484732    -8248.0294    
    117000   297.69651      208.5856       30070.215      0.99484732    -8294.1002    
    117100   300.18228      72.214839      30070.215      0.99484732    -8291.3056    
    117200   298.49715     -33.62802       30070.215      0.99484732    -8275.5523    
    117300   301.05999     -269.9744       30070.215      0.99484732    -8246.6922    
    117400   302.04097     -420.84004      30070.215      0.99484732    -8219.6543    
    117500   308.38024      804.16923      30070.215      0.99484732    -8132.8209    
    117600   316.73465      329.65784      30070.215      0.99484732    -8156.2068    
    117700   298.39979     -891.79868      30070.215      0.99484732    -8229.7045    
    117800   302.28364      152.09363      30070.215      0.99484732    -8238.5458    
    117900   299.84623      253.2657       30070.215      0.99484732    -8259.1841    
    118000   298.16207      77.764566      30070.215      0.99484732    -8313.4938    
    118100   291.21024     -298.6049       30070.215      0.99484732    -8319.7867    
    118200   300.11077      306.54656      30070.215      0.99484732    -8219.3961    
    118300   300.63431     -104.42365      30070.215      0.99484732    -8201.4893    
    118400   300.98001      507.1137       30070.215      0.99484732    -8221.068     
    118500   294.1598      -337.50741      30070.215      0.99484732    -8259.0978    
    118600   295.14719     -293.86186      30070.215      0.99484732    -8250.7539    
    118700   309.91735      98.431457      30070.215      0.99484732    -8163.1207    
    118800   300.06173      12.450292      30070.215      0.99484732    -8199.7655    
    118900   301.06368      390.19666      30070.215      0.99484732    -8239.7528    
    119000   294.88844      252.61376      30070.215      0.99484732    -8248.3196    
    119100   297.0469      -183.07988      30070.215      0.99484732    -8269.8448    
    119200   295.89325      448.31662      30070.215      0.99484732    -8310.4675    
    119300   290.56619     -151.94153      30070.215      0.99484732    -8328.135     
    119400   296.09451      0.072333197    30070.215      0.99484732    -8288.6352    
    119500   306.89877      195.17047      30070.215      0.99484732    -8218.247     
    119600   305.47674     -92.117846      30070.215      0.99484732    -8212.6053    
    119700   294.81493      186.98915      30070.215      0.99484732    -8232.8172    
    119800   298.72638     -2.1258746      30070.215      0.99484732    -8277.8138    
    119900   288.57978     -158.53182      30070.215      0.99484732    -8370.1025    
    120000   291.30151     -220.5617       30070.215      0.99484732    -8363.6323    
    120100   295.81677     -63.262987      30070.215      0.99484732    -8324.7671    
    120200   298.90275      192.27867      30070.215      0.99484732    -8273.0013    
    120300   303.85485      429.98296      30070.215      0.99484732    -8241.6545    
    120400   308.09375      147.8615       30070.215      0.99484732    -8254.5911    
    120500   300.12575      36.340711      30070.215      0.99484732    -8292.043     
    120600   300.032        167.74712      30070.215      0.99484732    -8309.4321    
    120700   298.38223      279.07412      30070.215      0.99484732    -8309.4415    
    120800   301.00694      365.52336      30070.215      0.99484732    -8267.0549    
    120900   307.02781      333.5359       30070.215      0.99484732    -8197.4435    
    121000   308.80465     -467.48746      30070.215      0.99484732    -8223.6105    
    121100   293.9979      -498.45168      30070.215      0.99484732    -8289.2069    
    121200   288.03597     -741.1503       30070.215      0.99484732    -8283.5817    
    121300   298.0866      -193.89163      30070.215      0.99484732    -8226.2705    
    121400   303.40516      219.12642      30070.215      0.99484732    -8214.6174    
    121500   300.473        147.52424      30070.215      0.99484732    -8249.7957    
    121600   297.64193     -363.10214      30070.215      0.99484732    -8281.2694    
    121700   298.08238      0.89160504     30070.215      0.99484732    -8272.8115    
    121800   296.69197      714.73538      30070.215      0.99484732    -8277.6366    
    121900   296.21648     -215.28462      30070.215      0.99484732    -8279.437     
    122000   302.15136      238.16831      30070.215      0.99484732    -8270.3961    
    122100   294.39439      259.56408      30070.215      0.99484732    -8288.3188    
    122200   292.30923      241.9007       30070.215      0.99484732    -8324.9363    
    122300   290.54835      80.374021      30070.215      0.99484732    -8353.5527    
    122400   298.35736      561.20124      30070.215      0.99484732    -8284.6915    
    122500   297.08584      1150.2548      30070.215      0.99484732    -8236.9864    
    122600   302.41784      663.62756      30070.215      0.99484732    -8220.3872    
    122700   295.70389      466.94853      30070.215      0.99484732    -8251.1763    
    122800   291.16151     -299.98462      30070.215      0.99484732    -8322.2158    
    122900   305.27669     -598.59811      30070.215      0.99484732    -8330.5887    
    123000   304.1611       267.29656      30070.215      0.99484732    -8247.7855    
    123100   309.15783      374.01962      30070.215      0.99484732    -8205.1655    
    123200   299.74355      14.366411      30070.215      0.99484732    -8258.83      
    123300   296.04676     -116.5523       30070.215      0.99484732    -8295.7022    
    123400   303.90658     -711.73284      30070.215      0.99484732    -8282.3689    
    123500   298.02662      77.879715      30070.215      0.99484732    -8227.8302    
    123600   308.46173      104.4074       30070.215      0.99484732    -8145.6566    
    123700   308.8478      -297.45895      30070.215      0.99484732    -8172.6198    
    123800   307.18689     -582.7394       30070.215      0.99484732    -8238.8816    
    123900   296.45408      74.709491      30070.215      0.99484732    -8280.5805    
    124000   301.19756     -14.964967      30070.215      0.99484732    -8269.9385    
    124100   307.01254      174.96595      30070.215      0.99484732    -8214.3832    
    124200   302.56706     -273.60043      30070.215      0.99484732    -8182.9396    
    124300   305.11142      159.05548      30070.215      0.99484732    -8179.1173    
    124400   296.81617      78.567248      30070.215      0.99484732    -8239.0119    
    124500   296.41397     -684.25477      30070.215      0.99484732    -8287.8476    
    124600   296.16084     -294.55603      30070.215      0.99484732    -8308.9625    
    124700   299.38578      20.515835      30070.215      0.99484732    -8253.3961    
    124800   305.0746      -436.55975      30070.215      0.99484732    -8189.2571    
    124900   300.99495     -247.09537      30070.215      0.99484732    -8185.1692    
    125000   292.78087      214.5479       30070.215      0.99484732    -8195.8227    
    125100   302.35947      342.18407      30070.215      0.99484732    -8177.8657    
    125200   305.21872      615.46098      30070.215      0.99484732    -8177.6914    
    125300   297.28664     -201.0742       30070.215      0.99484732    -8258.6291    
    125400   295.55832     -516.71352      30070.215      0.99484732    -8279.4383    
    125500   300.66033      162.38704      30070.215      0.99484732    -8271.196     
    125600   302.27754     -21.147582      30070.215      0.99484732    -8228.5517    
    125700   298.16947      221.43351      30070.215      0.99484732    -8200.9037    
    125800   299.19106     -257.97091      30070.215      0.99484732    -8241.4       
    125900   301.2924      -503.54064      30070.215      0.99484732    -8305.8877    
    126000   299.68491      511.23218      30070.215      0.99484732    -8337.4191    
    126100   292.0027      -121.93205      30070.215      0.99484732    -8341.4181    
    126200   297.99695     -220.66064      30070.215      0.99484732    -8253.4028    
    126300   309.18599      37.293461      30070.215      0.99484732    -8194.8821    
    126400   306.67735      454.18726      30070.215      0.99484732    -8237.641     
    126500   296.75146     -200.49619      30070.215      0.99484732    -8305.5401    
    126600   302.06627     -222.74125      30070.215      0.99484732    -8309.914     
    126700   299.94954      195.84256      30070.215      0.99484732    -8297.1034    
    126800   306.25139      527.94769      30070.215      0.99484732    -8242.578     
    126900   312.56282      63.937283      30070.215      0.99484732    -8228.7461    
    127000   296.14058     -147.42509      30070.215      0.99484732    -8316.8487    
    127100   304.77201      66.062512      30070.215      0.99484732    -8319.2039    
    127200   300.19262      14.175815      30070.215      0.99484732    -8294.9459    
    127300   294.89074      603.18622      30070.215      0.99484732    -8252.0185    
    127400   299.92901      1045.9268      30070.215      0.99484732    -8179.2183    
    127500   304.69293      417.90527      30070.215      0.99484732    -8187.7268    
    127600   306.99909     -516.03636      30070.215      0.99484732    -8237         
    127700   299.65425      253.12871      30070.215      0.99484732    -8276.6351    
    127800   299.88029     -149.93874      30070.215      0.99484732    -8305.9037    
    127900   300.04633      349.34359      30070.215      0.99484732    -8296.7156    
    128000   303.38164      631.58799      30070.215      0.99484732    -8281.5409    
    128100   296.09762      3.3849107      30070.215      0.99484732    -8279.0903    
    128200   297.46666      107.62505      30070.215      0.99484732    -8272.6402    
    128300   295.06538     -72.255443      30070.215      0.99484732    -8256.5973    
    128400   313.94517      6.239916       30070.215      0.99484732    -8159.942     
    128500   304.41423      327.43547      30070.215      0.99484732    -8168.3771    
    128600   303.18326     -213.57807      30070.215      0.99484732    -8238.4865    
    128700   301.43624      186.99118      30070.215      0.99484732    -8289.8417    
    128800   299.10484     -125.88266      30070.215      0.99484732    -8325.3151    
    128900   293.67533     -57.75968       30070.215      0.99484732    -8340.247     
    129000   302.32945     -804.92683      30070.215      0.99484732    -8268.4108    
    129100   305.99129     -113.29163      30070.215      0.99484732    -8220.9928    
    129200   305.70856      608.24743      30070.215      0.99484732    -8236.3387    
    129300   298.01561      114.76269      30070.215      0.99484732    -8279.4215    
    129400   299.69447      64.867783      30070.215      0.99484732    -8321.1645    
    129500   296.37211     -22.606809      30070.215      0.99484732    -8341.7652    
    129600   288.96384      138.44239      30070.215      0.99484732    -8350.8448    
    129700   300.83056     -312.18021      30070.215      0.99484732    -8287.3509    
    129800   307.33023      512.49812      30070.215      0.99484732    -8235.3289    
    129900   302.16971      509.1871       30070.215      0.99484732    -8250.2027    
    130000   294.79178     -465.90859      30070.215      0.99484732    -8308.2527    
    130100   294.99062     -432.66267      30070.215      0.99484732    -8343.5049    
    130200   297.5761      -362.8383       30070.215      0.99484732    -8275.3142    
    130300   307.14678      528.39968      30070.215      0.99484732    -8209.321     
    130400   297.25714      215.06148      30070.215      0.99484732    -8267.6431    
    130500   294.45135     -231.15248      30070.215      0.99484732    -8320.2182    
    130600   296.65573     -384.33488      30070.215      0.99484732    -8309.2171    
    130700   307.40776      131.8301       30070.215      0.99484732    -8257.1644    
    130800   309.2518      -195.57821      30070.215      0.99484732    -8222.8058    
    130900   302.90058     -357.26446      30070.215      0.99484732    -8235.7505    
    131000   296.57478      312.53808      30070.215      0.99484732    -8311.4729    
    131100   293.58792      9.413356       30070.215      0.99484732    -8358.3214    
    131200   294.86412      113.43472      30070.215      0.99484732    -8352.1329    
    131300   293.62757      22.627618      30070.215      0.99484732    -8280.9974    
    131400   303.53214     -62.363195      30070.215      0.99484732    -8240.7463    
    131500   294.76394      790.0448       30070.215      0.99484732    -8253.0549    
    131600   297.17218      118.9278       30070.215      0.99484732    -8299.7937    
    131700   295.01971     -307.2907       30070.215      0.99484732    -8351.2526    
    131800   286.66181      321.69641      30070.215      0.99484732    -8344.1328    
    131900   291.95406     -486.05669      30070.215      0.99484732    -8298.1845    
    132000   303.43898     -226.66349      30070.215      0.99484732    -8260.9121    
    132100   298.84166      2.3631217      30070.215      0.99484732    -8251.1697    
    132200   301.08965      110.11749      30070.215      0.99484732    -8237.4539    
    132300   309.94083      250.69816      30070.215      0.99484732    -8192.8134    
    132400   307.89816     -21.456081      30070.215      0.99484732    -8194.9772    
    132500   297.50518     -709.23257      30070.215      0.99484732    -8249.9782    
    132600   296.11096     -515.32609      30070.215      0.99484732    -8275.096     
    132700   296.48183     -377.26754      30070.215      0.99484732    -8326.755     
    132800   284.76422     -884.37181      30070.215      0.99484732    -8375.9729    
    132900   303.83375      319.91296      30070.215      0.99484732    -8308.4302    
    133000   293.07392      503.96555      30070.215      0.99484732    -8288.0777    
    133100   291.60814      161.7905       30070.215      0.99484732    -8252.6987    
    133200   307.66685     -196.55483      30070.215      0.99484732    -8206.2676    
    133300   301.80953     -623.12915      30070.215      0.99484732    -8214.2007    
    133400   296.7786       242.56134      30070.215      0.99484732    -8274.5997    
    133500   298.83915      270.45572      30070.215      0.99484732    -8343.1419    
    133600   298.53116     -173.75483      30070.215      0.99484732    -8328.9582    
    133700   300.26854      206.26259      30070.215      0.99484732    -8287.6042    
    133800   305.8766      -441.04174      30070.215      0.99484732    -8235.8979    
    133900   309.21528     -133.11813      30070.215      0.99484732    -8222.2235    
    134000   293.4517      -588.83033      30070.215      0.99484732    -8240.342     
    134100   295.75434      35.74984       30070.215      0.99484732    -8220.0333    
    134200   306.83462      129.77266      30070.215      0.99484732    -8197.4799    
    134300   305.40042     -485.40991      30070.215      0.99484732    -8224.7139    
    134400   299.9621      -315.37687      30070.215      0.99484732    -8310.8954    
    134500   300.52315      345.0345       30070.215      0.99484732    -8323.9048    
    134600   293.65417      87.978994      30070.215      0.99484732    -8308.9473    
    134700   296.61663     -264.72993      30070.215      0.99484732    -8295.5855    
    134800   302.92567      8.3429495      30070.215      0.99484732    -8229.6161    
    134900   307.51401      107.9958       30070.215      0.99484732    -8177.9147    
    135000   308.83854      259.05776      30070.215      0.99484732    -8227.9603    
    135100   301.58647     -45.514158      30070.215      0.99484732    -8289.1199    
    135200   294.18951     -278.35299      30070.215      0.99484732    -8297.8359    
    135300   296.42668     -295.59048      30070.215      0.99484732    -8246.6183    
    135400   304.76311      453.3337       30070.215      0.99484732    -8201.4608    
    135500   307.11579      52.805853      30070.215      0.99484732    -8224.1433    
    135600   298.84085      190.64952      30070.215      0.99484732    -8261.5759    
    135700   297.18375     -100.78157      30070.215      0.99484732    -8253.9881    
    135800   301.4527       290.63585      30070.215      0.99484732    -8226.6487    
    135900   302.94132     -245.95133      30070.215      0.99484732    -8248.1771    
    136000   308.17275      626.77564      30070.215      0.99484732    -8328.8832    
    136100   301.61942      959.57596      30070.215      0.99484732    -8356.0821    
    136200   294.79756      130.48068      30070.215      0.99484732    -8384.8531    
    136300   291.95195      171.66299      30070.215      0.99484732    -8380.1639    
    136400   300.94025     -149.89686      30070.215      0.99484732    -8304.0459    
    136500   298.14786     -517.95773      30070.215      0.99484732    -8256.3646    
    136600   303.79384      273.82102      30070.215      0.99484732    -8222.8312    
    136700   302.31785      420.36953      30070.215      0.99484732    -8232.181     
    136800   298.6385       431.23788      30070.215      0.99484732    -8298.5514    
    136900   292.50687      15.41972       30070.215      0.99484732    -8362.5291    
    137000   294.12082      526.99953      30070.215      0.99484732    -8352.9458    
    137100   300.29653     -195.10382      30070.215      0.99484732    -8312.7628    
    137200   295.21686     -121.64212      30070.215      0.99484732    -8269.7652    
    137300   292.14207      489.12367      30070.215      0.99484732    -8239.4532    
    137400   294.53853      628.11148      30070.215      0.99484732    -8223.5787    
    137500   302.73941      10.032052      30070.215      0.99484732    -8216.8563    
    137600   296.37699     -499.36557      30070.215      0.99484732    -8234.4315    
    137700   302.73184     -271.7942       30070.215      0.99484732    -8219.2161    
    137800   301.40899      36.500578      30070.215      0.99484732    -8217.3405    
    137900   299.39052     -96.663487      30070.215      0.99484732    -8266.4808    
    138000   292.5922      -86.328116      30070.215      0.99484732    -8309.3985    
    138100   292.20774      237.63792      30070.215      0.99484732    -8277.9019    
    138200   296.22928      81.597729      30070.215      0.99484732    -8202.2574    
    138300   296.68681      163.76555      30070.215      0.99484732    -8187.8974    
    138400   304.99823     -751.70391      30070.215      0.99484732    -8185.2237    
    138500   293.17252     -252.8151       30070.215      0.99484732    -8218.0746    
    138600   293.73446     -577.32257      30070.215      0.99484732    -8280.5018    
    138700   292.66549     -280.33297      30070.215      0.99484732    -8304.6519    
    138800   295.78375     -69.950831      30070.215      0.99484732    -8248.7089    
    138900   312.08619      39.846948      30070.215      0.99484732    -8178.0088    
    139000   307.37396      545.20881      30070.215      0.99484732    -8231.6381    
    139100   298.94763     -521.31595      30070.215      0.99484732    -8291.4133    
    139200   303.00884     -180.83558      30070.215      0.99484732    -8304.2804    
    139300   299.51636     -18.181696      30070.215      0.99484732    -8330.9075    
    139400   298.3009      -385.26782      30070.215      0.99484732    -8356.8478    
    139500   296.33002     -648.47091      30070.215      0.99484732    -8306.62      
    139600   303.99358      496.19444      30070.215      0.99484732    -8244.0193    
    139700   295.59538     -20.172876      30070.215      0.99484732    -8252.4599    
    139800   293.85936      281.27768      30070.215      0.99484732    -8256.7088    
    139900   311.24761      465.72663      30070.215      0.99484732    -8196.1218    
    140000   302.27208      161.90396      30070.215      0.99484732    -8191.0187    
    140100   297.59782     -160.95312      30070.215      0.99484732    -8250.3857    
    140200   300.7171      -295.09903      30070.215      0.99484732    -8287.6673    
    140300   307.92852     -360.0788       30070.215      0.99484732    -8263.457     
    140400   300.16004      1086.7552      30070.215      0.99484732    -8183.5986    
    140500   295.2519       1306.6662      30070.215      0.99484732    -8179.931     
    140600   303.56283      778.50188      30070.215      0.99484732    -8210.7315    
    140700   296.82261      449.92026      30070.215      0.99484732    -8317.8674    
    140800   289.57546      350.23547      30070.215      0.99484732    -8320.4429    
    140900   305.38989      422.54811      30070.215      0.99484732    -8257.2681    
    141000   308.64593     -360.37216      30070.215      0.99484732    -8228.1437    
    141100   299.3094      -403.30443      30070.215      0.99484732    -8248.3192    
    141200   297.19371     -546.1805       30070.215      0.99484732    -8311.7308    
    141300   294.83368     -667.09483      30070.215      0.99484732    -8367.8446    
    141400   295.29532     -310.31259      30070.215      0.99484732    -8321.6254    
    141500   298.32802      5.9426786      30070.215      0.99484732    -8275.7486    
    141600   303.30223      380.40341      30070.215      0.99484732    -8255.4531    
    141700   296.71967     -419.0257       30070.215      0.99484732    -8261.0122    
    141800   311.80448     -261.31791      30070.215      0.99484732    -8195.1496    
    141900   304.45144      113.68161      30070.215      0.99484732    -8157.6319    
    142000   303.40821     -164.71169      30070.215      0.99484732    -8197.2057    
    142100   295.91545      92.8341        30070.215      0.99484732    -8281.5363    
    142200   302.4269      -213.12386      30070.215      0.99484732    -8275.5222    
    142300   305.56655      263.78544      30070.215      0.99484732    -8248.2039    
    142400   301.38362      392.08751      30070.215      0.99484732    -8278.1184    
    142500   294.41388     -356.12156      30070.215      0.99484732    -8329.872     
    142600   302.23027     -62.131012      30070.215      0.99484732    -8307.8031    
    142700   306.26067      430.9242       30070.215      0.99484732    -8214.4737    
    142800   306.19646      782.55069      30070.215      0.99484732    -8205.8211    
    142900   301.56316      63.048467      30070.215      0.99484732    -8251.496     
    143000   300.94454     -164.61209      30070.215      0.99484732    -8248.3989    
    143100   295.65468     -40.054584      30070.215      0.99484732    -8222.9458    
    143200   303.38552     -38.52295       30070.215      0.99484732    -8149.7294    
    143300   307.98241      371.38413      30070.215      0.99484732    -8097.7899    
    143400   300.76075      676.08509      30070.215      0.99484732    -8124.4538    
    143500   304.01724      458.54889      30070.215      0.99484732    -8157.4017    
    143600   302.68441     -68.048211      30070.215      0.99484732    -8204.7893    
    143700   295.77726     -348.44513      30070.215      0.99484732    -8225.3666    
    143800   299.01066      179.57513      30070.215      0.99484732    -8222.0283    
    143900   290.93769     -134.45018      30070.215      0.99484732    -8277.8763    
    144000   288.82774     -411.01768      30070.215      0.99484732    -8330.704     
    144100   291.35037     -382.38309      30070.215      0.99484732    -8292.5963    
    144200   297.24145     -379.42359      30070.215      0.99484732    -8239.0563    
    144300   310.05855     -130.28623      30070.215      0.99484732    -8210.378     
    144400   304.82965     -50.253307      30070.215      0.99484732    -8214.5401    
    144500   300.6576      -510.38913      30070.215      0.99484732    -8253.3714    
    144600   294.01693     -378.17528      30070.215      0.99484732    -8305.2512    
    144700   295.99867     -308.65175      30070.215      0.99484732    -8300.455     
    144800   301.82202      179.66091      30070.215      0.99484732    -8201.6239    
    144900   304.67218      298.86848      30070.215      0.99484732    -8179.5585    
    145000   298.39334      592.79577      30070.215      0.99484732    -8227.4797    
    145100   301.52967     -376.49545      30070.215      0.99484732    -8286.5038    
    145200   296.38339     -156.99256      30070.215      0.99484732    -8294.4116    
    145300   304.99756      96.291071      30070.215      0.99484732    -8277.4223    
    145400   297.77452      451.65523      30070.215      0.99484732    -8236.4662    
    145500   313.86805      126.50855      30070.215      0.99484732    -8160.8872    
    145600   303.88275     -523.78501      30070.215      0.99484732    -8193.1393    
    145700   295.069       -2.2110663      30070.215      0.99484732    -8233.6639    
    145800   302.96835      43.620786      30070.215      0.99484732    -8260.3675    
    145900   302.9398      -440.39522      30070.215      0.99484732    -8275.2163    
    146000   299.7399       273.7403       30070.215      0.99484732    -8273.3402    
    146100   295.86792      329.25377      30070.215      0.99484732    -8267.064     
    146200   300.47712      337.44017      30070.215      0.99484732    -8245.3604    
    146300   306.06409      396.79938      30070.215      0.99484732    -8233.4686    
    146400   293.45223     -325.94567      30070.215      0.99484732    -8267.0988    
    146500   297.32021     -308.11459      30070.215      0.99484732    -8247.9186    
    146600   302.75866      16.194361      30070.215      0.99484732    -8187.2767    
    146700   310.19794      800.66532      30070.215      0.99484732    -8194.6285    
    146800   300.42067      197.80673      30070.215      0.99484732    -8265.5853    
    146900   306.35439      248.36248      30070.215      0.99484732    -8286.2173    
    147000   300.80833      952.54597      30070.215      0.99484732    -8329.3454    
    147100   294.91526     -190.45073      30070.215      0.99484732    -8381.0065    
    147200   293.30089     -411.59971      30070.215      0.99484732    -8354.7909    
    147300   306.62143      174.73847      30070.215      0.99484732    -8304.158     
    147400   296.44662      187.92085      30070.215      0.99484732    -8308.5393    
    147500   296.37822     -460.74751      30070.215      0.99484732    -8303.5082    
    147600   298.66047      402.03479      30070.215      0.99484732    -8251.3813    
    147700   310.06943      307.58412      30070.215      0.99484732    -8205.7982    
    147800   301.43581     -228.36053      30070.215      0.99484732    -8256.8468    
    147900   302.69612     -433.2883       30070.215      0.99484732    -8325.2396    
    148000   296.38471      135.0764       30070.215      0.99484732    -8320.2288    
    148100   306.0286      -302.29854      30070.215      0.99484732    -8274.5584    
    148200   309.86361     -218.53458      30070.215      0.99484732    -8240.5238    
    148300   299.25652      364.57744      30070.215      0.99484732    -8273.58      
    148400   298.00221     -99.574304      30070.215      0.99484732    -8368.5417    
    148500   295.42995      170.01587      30070.215      0.99484732    -8347.4537    
    148600   303.57879     -438.36517      30070.215      0.99484732    -8292.2725    
    148700   300.18078      344.81273      30070.215      0.99484732    -8258.6666    
    148800   306.92015     -245.94857      30070.215      0.99484732    -8241.2002    
    148900   299.90174     -215.06158      30070.215      0.99484732    -8280.8561    
    149000   295.67197     -559.95495      30070.215      0.99484732    -8362.8363    
    149100   293.36129      8.3645748      30070.215      0.99484732    -8365.7968    
    149200   297.96293     -406.49763      30070.215      0.99484732    -8310.7221    
    149300   305.73909     -5.7094557      30070.215      0.99484732    -8264.9904    
    149400   302.21555      23.529515      30070.215      0.99484732    -8264.6767    
    149500   304.64518     -86.836982      30070.215      0.99484732    -8266.7697    
    149600   301.43805      925.99169      30070.215      0.99484732    -8301.9795    
    149700   284.77712      328.28332      30070.215      0.99484732    -8385.3436    
    149800   283.77809      320.90455      30070.215      0.99484732    -8348.79      
    149900   307.36437      166.03316      30070.215      0.99484732    -8297.2649    
    150000   297.29024      468.74948      30070.215      0.99484732    -8266.3819    
    150100   307.96031      525.52866      30070.215      0.99484732    -8253.7978    
    150200   298.11089      186.31249      30070.215      0.99484732    -8321.6746    
    150300   294.65344      112.07042      30070.215      0.99484732    -8359.9308    
    150400   291.87689      110.5821       30070.215      0.99484732    -8331.3054    
    150500   293.57156     -91.624364      30070.215      0.99484732    -8280.3786    
    150600   304.97846      255.74592      30070.215      0.99484732    -8253.4326    
    150700   294.21723     -184.255        30070.215      0.99484732    -8258.7925    
    150800   294.69777     -225.52003      30070.215      0.99484732    -8254.9741    
    150900   303.81961      171.76724      30070.215      0.99484732    -8180.8469    
    151000   302.26155      217.78749      30070.215      0.99484732    -8146.2983    
    151100   304.12855      348.38458      30070.215      0.99484732    -8200.0433    
    151200   295.92357     -278.98432      30070.215      0.99484732    -8243.2112    
    151300   304.29964     -163.23187      30070.215      0.99484732    -8236.0481    
    151400   307.48827      495.84686      30070.215      0.99484732    -8234.5745    
    151500   299.57008     -173.96985      30070.215      0.99484732    -8311.0363    
    151600   298.54429     -409.71915      30070.215      0.99484732    -8355.858     
    151700   298.065       -159.85016      30070.215      0.99484732    -8320.5391    
    151800   301.06315     -356.70952      30070.215      0.99484732    -8262.9147    
    151900   300.82214     -329.69377      30070.215      0.99484732    -8241.8224    
    152000   301.94825     -142.75818      30070.215      0.99484732    -8236.9479    
    152100   304.13743     -25.493918      30070.215      0.99484732    -8235.6386    
    152200   304.53701      282.80798      30070.215      0.99484732    -8276.297     
    152300   293.55432      202.10206      30070.215      0.99484732    -8339.843     
    152400   297.94304      99.063338      30070.215      0.99484732    -8331.1202    
    152500   304.45922      147.26017      30070.215      0.99484732    -8258.7531    
    152600   314.76224     -577.03827      30070.215      0.99484732    -8231.7369    
    152700   298.06497     -86.901842      30070.215      0.99484732    -8260.419     
    152800   295.70166      174.68687      30070.215      0.99484732    -8270.8647    
    152900   295.85626      309.78779      30070.215      0.99484732    -8269.4883    
    153000   302.41077      200.44865      30070.215      0.99484732    -8221.3636    
    153100   300.61559      47.108855      30070.215      0.99484732    -8203.5758    
    153200   300.60051     -646.76706      30070.215      0.99484732    -8263.9552    
    153300   298.69174     -137.8183       30070.215      0.99484732    -8286.3786    
    153400   300.23685     -839.52485      30070.215      0.99484732    -8266.7628    
    153500   310.03651      102.69612      30070.215      0.99484732    -8168.9333    
    153600   305.75382     -50.444862      30070.215      0.99484732    -8158.8193    
    153700   305.2114      -221.06965      30070.215      0.99484732    -8198.9485    
    153800   296.57398     -593.84568      30070.215      0.99484732    -8225.6791    
    153900   300.78058      570.73963      30070.215      0.99484732    -8226.6362    
    154000   295.71806     -207.91761      30070.215      0.99484732    -8251.2847    
    154100   295.65166     -336.44799      30070.215      0.99484732    -8278.6433    
    154200   297.69483     -534.37009      30070.215      0.99484732    -8292.546     
    154300   300.34666      234.68256      30070.215      0.99484732    -8244.033     
    154400   301.27716      139.57593      30070.215      0.99484732    -8186.1341    
    154500   296.58909     -292.18182      30070.215      0.99484732    -8152.9547    
    154600   299.61434     -635.10366      30070.215      0.99484732    -8135.3039    
    154700   309.34578      19.959643      30070.215      0.99484732    -8132.3126    
    154800   294.01656      589.69449      30070.215      0.99484732    -8213.3506    
    154900   290.34065      164.72475      30070.215      0.99484732    -8258.4173    
    155000   304.82057      261.2109       30070.215      0.99484732    -8233.5383    
    155100   303.02591     -64.677987      30070.215      0.99484732    -8179.2639    
    155200   303.63131      22.943758      30070.215      0.99484732    -8154.7158    
    155300   298.64145     -131.36115      30070.215      0.99484732    -8178.9256    
    155400   296.34711     -136.25426      30070.215      0.99484732    -8266.5296    
    155500   295.85609     -298.75221      30070.215      0.99484732    -8287.7999    
    155600   300.41114     -75.93933       30070.215      0.99484732    -8272.3792    
    155700   296.5654       45.284814      30070.215      0.99484732    -8215.432     
    155800   302.86851      738.13087      30070.215      0.99484732    -8157.5896    
    155900   299.7849      -563.55309      30070.215      0.99484732    -8175.4982    
    156000   302.40157     -234.30821      30070.215      0.99484732    -8189.3627    
    156100   305.22532     -129.29178      30070.215      0.99484732    -8208.5027    
    156200   306.33943      645.95749      30070.215      0.99484732    -8228.3868    
    156300   300.66028      331.94349      30070.215      0.99484732    -8293.4588    
    156400   296.05803     -103.46454      30070.215      0.99484732    -8312.731     
    156500   303.93161     -100.78528      30070.215      0.99484732    -8282.622     
    156600   302.90344      504.21818      30070.215      0.99484732    -8248.9733    
    156700   304.82294      491.99706      30070.215      0.99484732    -8251.7429    
    156800   297.99951     -195.40638      30070.215      0.99484732    -8321.4532    
    156900   301.48047      331.53587      30070.215      0.99484732    -8329.404     
    157000   298.69764     -77.029838      30070.215      0.99484732    -8282.1447    
    157100   298.53193      417.87472      30070.215      0.99484732    -8208.6185    
    157200   309.05696     -7.2035671      30070.215      0.99484732    -8199.1578    
    157300   295.2943      -4.1732209      30070.215      0.99484732    -8246.6988    
    157400   301.37307      242.82543      30070.215      0.99484732    -8263.8307    
    157500   302.10334     -110.90522      30070.215      0.99484732    -8266.3445    
    157600   299.05341     -611.50705      30070.215      0.99484732    -8224.7714    
    157700   317.42538      730.76302      30070.215      0.99484732    -8162.04      
    157800   299.55571      253.24616      30070.215      0.99484732    -8212.3943    
    157900   303.71405     -400.7542       30070.215      0.99484732    -8274.5884    
    158000   292.20659     -79.966249      30070.215      0.99484732    -8307.0141    
    158100   303.99766     -213.47881      30070.215      0.99484732    -8264.0144    
    158200   302.73464      378.53131      30070.215      0.99484732    -8211.0662    
    158300   304.67657     -175.21855      30070.215      0.99484732    -8227.0538    
    158400   302.1525       21.267806      30070.215      0.99484732    -8261.1519    
    158500   302.67295     -295.24827      30070.215      0.99484732    -8302.5008    
    158600   302.80545      438.08928      30070.215      0.99484732    -8318.7334    
    158700   303.53322      384.41718      30070.215      0.99484732    -8336.2417    
    158800   299.82366      245.10307      30070.215      0.99484732    -8332.6128    
    158900   303.34615      217.79361      30070.215      0.99484732    -8299.4425    
    159000   299.05069     -188.31574      30070.215      0.99484732    -8270.1561    
    159100   310.28241     -374.20523      30070.215      0.99484732    -8172.1123    
    159200   311.5466      -277.29263      30070.215      0.99484732    -8181.8383    
    159300   306.62149     -439.88815      30070.215      0.99484732    -8240.0491    
    159400   293.38881      409.42386      30070.215      0.99484732    -8282.6567    
    159500   302.52109      436.63583      30070.215      0.99484732    -8291.3874    
    159600   294.39571      62.776807      30070.215      0.99484732    -8326.8867    
    159700   291.89098     -805.63208      30070.215      0.99484732    -8407.8198    
    159800   291.11506     -170.50945      30070.215      0.99484732    -8399.3219    
    159900   296.81292     -65.358573      30070.215      0.99484732    -8349.4278    
    160000   301.24301     -583.01809      30070.215      0.99484732    -8318.7325    
    160100   303.62025     -264.03822      30070.215      0.99484732    -8311.7105    
    160200   298.59618     -393.70839      30070.215      0.99484732    -8281.406     
    160300   301.6317      -111.98211      30070.215      0.99484732    -8223.3282    
    160400   310.07134      393.80376      30070.215      0.99484732    -8208.8042    
    160500   296.89069      80.163198      30070.215      0.99484732    -8261.5881    
    160600   293.0203      -483.50346      30070.215      0.99484732    -8349.6077    
    160700   301.70934     -323.3199       30070.215      0.99484732    -8321.3836    
    160800   302.65425     -95.245466      30070.215      0.99484732    -8291.8475    
    160900   301.70369     -429.82913      30070.215      0.99484732    -8265.1297    
    161000   307.77598     -427.56356      30070.215      0.99484732    -8201.2494    
    161100   300.89683      188.36456      30070.215      0.99484732    -8166.7265    
    161200   299.32427      89.865593      30070.215      0.99484732    -8236.5734    
    161300   297.01811     -471.24072      30070.215      0.99484732    -8289.6552    
    161400   305.24876     -175.86468      30070.215      0.99484732    -8271.6596    
    161500   298.43594      396.74822      30070.215      0.99484732    -8282.3525    
    161600   290.58409     -229.38522      30070.215      0.99484732    -8309.1113    
    161700   302.39532      309.07508      30070.215      0.99484732    -8245.3095    
    161800   304.02258      8.5817793      30070.215      0.99484732    -8202.4137    
    161900   301.73923     -16.747398      30070.215      0.99484732    -8209.8277    
    162000   297.67439      65.200476      30070.215      0.99484732    -8271.797     
    162100   298.48156     -205.8479       30070.215      0.99484732    -8312.4556    
    162200   299.35124     -45.623235      30070.215      0.99484732    -8295.9306    
    162300   301.12405      221.86138      30070.215      0.99484732    -8284.2316    
    162400   294.126       -112.7418       30070.215      0.99484732    -8298.5913    
    162500   292.67995     -492.21381      30070.215      0.99484732    -8347.6586    
    162600   295.85526      64.810859      30070.215      0.99484732    -8351.9474    
    162700   301.2393      -402.41978      30070.215      0.99484732    -8282.4955    
    162800   304.24931      453.06903      30070.215      0.99484732    -8246.3757    
    162900   308.38102     -262.26198      30070.215      0.99484732    -8232.9778    
    163000   304.23856     -161.49397      30070.215      0.99484732    -8250.9977    
    163100   289.56058     -111.20676      30070.215      0.99484732    -8347.4963    
    163200   291.25487      447.65183      30070.215      0.99484732    -8351.3782    
    163300   296.63614      44.980028      30070.215      0.99484732    -8320.1775    
    163400   307.93083     -319.4685       30070.215      0.99484732    -8264.4023    
    163500   300.4052      -404.84016      30070.215      0.99484732    -8274.5068    
    163600   306.03379     -430.84666      30070.215      0.99484732    -8297.7572    
    163700   300.46191      359.06555      30070.215      0.99484732    -8318.6389    
    163800   295.51497     -316.40836      30070.215      0.99484732    -8319.2183    
    163900   304.57156     -172.15024      30070.215      0.99484732    -8286.5742    
    164000   293.28605      458.38492      30070.215      0.99484732    -8204.8956    
    164100   305.242        577.49812      30070.215      0.99484732    -8169.4576    
    164200   300.53058      30.635709      30070.215      0.99484732    -8217.3864    
    164300   289.5014      -233.75221      30070.215      0.99484732    -8255.9255    
    164400   309.01505     -376.79469      30070.215      0.99484732    -8235.8505    
    164500   295.84455      482.1978       30070.215      0.99484732    -8238.8609    
    164600   298.37924      635.96911      30070.215      0.99484732    -8315.8907    
    164700   293.17364      1148.3013      30070.215      0.99484732    -8347.258     
    164800   293.74152      551.93064      30070.215      0.99484732    -8325.3821    
    164900   301.37536      176.16666      30070.215      0.99484732    -8283.1363    
    165000   306.54094      550.50311      30070.215      0.99484732    -8206.8683    
    165100   296.26861      656.09863      30070.215      0.99484732    -8222.3971    
    165200   304.07648      498.7134       30070.215      0.99484732    -8250.9645    
    165300   300.18827      385.13574      30070.215      0.99484732    -8266.5903    
    165400   296.66775      490.64927      30070.215      0.99484732    -8265.7595    
    165500   303.5604       374.70349      30070.215      0.99484732    -8238.1198    
    165600   304.85921      467.8411       30070.215      0.99484732    -8180.8938    
    165700   310.3721       333.27716      30070.215      0.99484732    -8145.0445    
    165800   295.04087     -281.37946      30070.215      0.99484732    -8202.591     
    165900   299.4298      -92.773076      30070.215      0.99484732    -8223.9976    
    166000   300.6833      -318.08801      30070.215      0.99484732    -8233.1701    
    166100   296.30663     -629.28366      30070.215      0.99484732    -8307.2667    
    166200   296.02462     -255.67235      30070.215      0.99484732    -8355.0028    
    166300   297.3451       474.62096      30070.215      0.99484732    -8335.1746    
    166400   302.79142     -594.59477      30070.215      0.99484732    -8279.6218    
    166500   299.71352      142.05607      30070.215      0.99484732    -8226.4503    
    166600   298.2534      -121.48222      30070.215      0.99484732    -8208.2791    
    166700   301.96809      382.23605      30070.215      0.99484732    -8199.6275    
    166800   293.34362      846.27356      30070.215      0.99484732    -8201.9448    
    166900   308.50571      132.47932      30070.215      0.99484732    -8176.6296    
    167000   307.07293      821.78451      30070.215      0.99484732    -8135.5056    
    167100   303.99695      227.33362      30070.215      0.99484732    -8162.5864    
    167200   302.61001      215.93364      30070.215      0.99484732    -8235.4354    
    167300   294.52315      205.87488      30070.215      0.99484732    -8272.6305    
    167400   303.53904      265.68082      30070.215      0.99484732    -8242.6207    
    167500   297.13298      115.19684      30070.215      0.99484732    -8202.848     
    167600   302.74382      454.49459      30070.215      0.99484732    -8143.2414    
    167700   308.50171      286.337        30070.215      0.99484732    -8093.4882    
    167800   304.22168      6.6128615      30070.215      0.99484732    -8162.321     
    167900   293.11184      330.51017      30070.215      0.99484732    -8206.2115    
    168000   303.10419      142.74367      30070.215      0.99484732    -8213.0188    
    168100   298.09876      555.02066      30070.215      0.99484732    -8250.0327    
    168200   293.73711     -934.99244      30070.215      0.99484732    -8279.8447    
    168300   293.47597     -261.64665      30070.215      0.99484732    -8251.0533    
    168400   299.85248      953.06906      30070.215      0.99484732    -8170.8334    
    168500   306.00038      319.28646      30070.215      0.99484732    -8199.5775    
    168600   292.30932     -443.18458      30070.215      0.99484732    -8249.5984    
    168700   297.17815     -130.30058      30070.215      0.99484732    -8214.451     
    168800   304.64392      494.28455      30070.215      0.99484732    -8175.6465    
    168900   298.58182      308.7858       30070.215      0.99484732    -8194.2108    
    169000   295.15308     -674.87892      30070.215      0.99484732    -8227.8359    
    169100   295.31539      14.959139      30070.215      0.99484732    -8232.3328    
    169200   297.98323     -102.25611      30070.215      0.99484732    -8225.393     
    169300   299.20279     -95.273583      30070.215      0.99484732    -8197.6733    
    169400   305.22682      61.024598      30070.215      0.99484732    -8149.0018    
    169500   308.79198     -198.01445      30070.215      0.99484732    -8173.6567    
    169600   299.14935     -377.85062      30070.215      0.99484732    -8246.9057    
    169700   301.00972     -126.10107      30070.215      0.99484732    -8270.9523    
    169800   301.55563      270.83512      30070.215      0.99484732    -8300.016     
    169900   294.34459     -359.45034      30070.215      0.99484732    -8339.639     
    170000   293.52813     -531.07583      30070.215      0.99484732    -8403.3297    
    170100   287.22782      163.9011       30070.215      0.99484732    -8420.1329    
    170200   292.49584      208.9657       30070.215      0.99484732    -8331.7866    
    170300   295.14993     -178.20558      30070.215      0.99484732    -8294.6959    
    170400   302.05363     -486.61484      30070.215      0.99484732    -8241.0686    
    170500   297.58851     -240.31341      30070.215      0.99484732    -8201.3262    
    170600   305.5309       144.85396      30070.215      0.99484732    -8188.8684    
    170700   297.87797      234.6052       30070.215      0.99484732    -8265.5372    
    170800   294.24053     -364.47161      30070.215      0.99484732    -8296.4913    
    170900   305.92664     -23.666256      30070.215      0.99484732    -8274.2438    
    171000   295.62071     -123.70162      30070.215      0.99484732    -8279.1852    
    171100   296.68822     -27.646378      30070.215      0.99484732    -8254.845     
    171200   308.30841     -27.269964      30070.215      0.99484732    -8228.6779    
    171300   301.0457       351.45148      30070.215      0.99484732    -8225.4689    
    171400   293.31418      310.90156      30070.215      0.99484732    -8237.3361    
    171500   300.81184      298.68415      30070.215      0.99484732    -8271.0101    
    171600   295.54751      15.05022       30070.215      0.99484732    -8315.159     
    171700   297.93976      707.1494       30070.215      0.99484732    -8286.1175    
    171800   303.72252      1042.0026      30070.215      0.99484732    -8213.0166    
    171900   303.61973     -46.124678      30070.215      0.99484732    -8224.9079    
    172000   298.9716      -77.774928      30070.215      0.99484732    -8300.4725    
    172100   293.111       -341.53853      30070.215      0.99484732    -8308.264     
    172200   292.27255     -2.4755197      30070.215      0.99484732    -8280.3482    
    172300   298.00542     -626.22443      30070.215      0.99484732    -8229.1392    
    172400   311.14189      808.13761      30070.215      0.99484732    -8205.7245    
    172500   296.60607     -359.90639      30070.215      0.99484732    -8239.908     
    172600   296.91808     -70.562565      30070.215      0.99484732    -8237.8799    
    172700   314.38477     -17.453553      30070.215      0.99484732    -8180.5352    
    172800   304.23181     -114.20849      30070.215      0.99484732    -8206.2712    
    172900   302.57505     -505.10443      30070.215      0.99484732    -8275.9409    
    173000   295.09179      296.99614      30070.215      0.99484732    -8298.3108    
    173100   300.38106      42.413618      30070.215      0.99484732    -8297.3358    
    173200   293.20239      248.67941      30070.215      0.99484732    -8240.0101    
    173300   302.32832     -92.827416      30070.215      0.99484732    -8166.0457    
    173400   301.34775     -148.36457      30070.215      0.99484732    -8168.5915    
    173500   306.88934     -224.33735      30070.215      0.99484732    -8208.0104    
    173600   297.45283      3.5651067      30070.215      0.99484732    -8275.4559    
    173700   299.25987      476.74746      30070.215      0.99484732    -8288.3313    
    173800   296.46016      276.86326      30070.215      0.99484732    -8288.9881    
    173900   301.96276      15.212587      30070.215      0.99484732    -8289.8586    
    174000   299.65725      335.01722      30070.215      0.99484732    -8285.4171    
    174100   306.72972      507.37614      30070.215      0.99484732    -8229.757     
    174200   302.99095      560.67067      30070.215      0.99484732    -8151.8068    
    174300   306.42454      697.11006      30070.215      0.99484732    -8168.5177    
    174400   302.25151      906.32081      30070.215      0.99484732    -8241.0356    
    174500   294.48293      848.40579      30070.215      0.99484732    -8292.5297    
    174600   306.78155     -230.56909      30070.215      0.99484732    -8312.3117    
    174700   295.06403      153.64462      30070.215      0.99484732    -8345.8756    
    174800   298.45884      244.75197      30070.215      0.99484732    -8349.7829    
    174900   305.69073     -207.5382       30070.215      0.99484732    -8269.9899    
    175000   303.24011     -109.83432      30070.215      0.99484732    -8222.8028    
    175100   304.35702     -537.43552      30070.215      0.99484732    -8211.4694    
    175200   300.23693     -272.44267      30070.215      0.99484732    -8208.245     
    175300   301.03986      29.776461      30070.215      0.99484732    -8188.1475    
    175400   306.18662      4.7691657      30070.215      0.99484732    -8201.0947    
    175500   294.12284     -672.86069      30070.215      0.99484732    -8265.5943    
    175600   296.86641     -214.60597      30070.215      0.99484732    -8279.2269    
    175700   302.00467     -611.65376      30070.215      0.99484732    -8269.151     
    175800   309.48008      212.19565      30070.215      0.99484732    -8193.0191    
    175900   310.6439      -457.59733      30070.215      0.99484732    -8178.5347    
    176000   299.82728     -262.83177      30070.215      0.99484732    -8217.0186    
    176100   300.68972      359.84962      30070.215      0.99484732    -8287.4588    
    176200   292.43393      210.56949      30070.215      0.99484732    -8340.4708    
    176300   296.43269      117.23127      30070.215      0.99484732    -8306.9622    
    176400   302.60751      582.06811      30070.215      0.99484732    -8264.2635    
    176500   298.9496       513.24455      30070.215      0.99484732    -8277.7886    
    176600   291.78502     -439.26316      30070.215      0.99484732    -8340.3935    
    176700   297.47843     -57.919784      30070.215      0.99484732    -8341.6093    
    176800   309.13801      66.593581      30070.215      0.99484732    -8238.4927    
    176900   299.80804      202.03449      30070.215      0.99484732    -8238.1208    
    177000   303.73952     -346.50043      30070.215      0.99484732    -8259.1051    
    177100   298.96167     -230.96469      30070.215      0.99484732    -8303.3439    
    177200   299.70014      236.35854      30070.215      0.99484732    -8298.8614    
    177300   305.34474      58.356535      30070.215      0.99484732    -8274.9533    
    177400   300.89418      249.33731      30070.215      0.99484732    -8256.7385    
    177500   304.8585      -57.133019      30070.215      0.99484732    -8244.6996    
    177600   300.55227      360.61351      30070.215      0.99484732    -8219.4902    
    177700   305.42259      285.98492      30070.215      0.99484732    -8197.4641    
    177800   304.36026      500.64008      30070.215      0.99484732    -8180.1484    
    177900   291.82129     -344.94967      30070.215      0.99484732    -8233.5724    
    178000   294.66055     -663.10349      30070.215      0.99484732    -8283.3819    
    178100   299.85682     -74.579783      30070.215      0.99484732    -8247.0495    
    178200   300.63071     -34.846168      30070.215      0.99484732    -8215.8785    
    178300   302.50047      246.09638      30070.215      0.99484732    -8225.0729    
    178400   301.41277     -620.81077      30070.215      0.99484732    -8246.4896    
    178500   303.73779     -423.69645      30070.215      0.99484732    -8235.497     
    178600   300.93788      237.76713      30070.215      0.99484732    -8260.0263    
    178700   304.77987      198.59497      30070.215      0.99484732    -8273.8491    
    178800   300.66958      317.61137      30070.215      0.99484732    -8283.3068    
    178900   298.48506     -259.51834      30070.215      0.99484732    -8275.5642    
    179000   307.12247      15.547002      30070.215      0.99484732    -8239.8165    
    179100   302.02178     -227.62176      30070.215      0.99484732    -8221.0803    
    179200   309.32882      31.352723      30070.215      0.99484732    -8183.8451    
    179300   307.01766     -104.70122      30070.215      0.99484732    -8191.1166    
    179400   301.40201      298.4415       30070.215      0.99484732    -8239.7777    
    179500   297.89981     -318.61709      30070.215      0.99484732    -8279.7155    
    179600   307.21445     -414.18536      30070.215      0.99484732    -8273.1769    
    179700   299.54642     -85.600279      30070.215      0.99484732    -8286.7395    
    179800   294.49841     -378.5392       30070.215      0.99484732    -8308.3558    
    179900   303.61873      420.50765      30070.215      0.99484732    -8302.8003    
    180000   297.91634     -268.02854      30070.215      0.99484732    -8297.4907    
    180100   303.60368      107.66234      30070.215      0.99484732    -8256.9919    
    180200   310.56081      30.236858      30070.215      0.99484732    -8203.9872    
    180300   300.61719     -36.741295      30070.215      0.99484732    -8212.0874    
    180400   297.11858      263.16411      30070.215      0.99484732    -8297.0642    
    180500   291.10272      57.304001      30070.215      0.99484732    -8332.3672    
    180600   303.7081       251.80107      30070.215      0.99484732    -8293.6968    
    180700   293.46445     -4.0841935      30070.215      0.99484732    -8257.4064    
    180800   302.38942      111.73946      30070.215      0.99484732    -8237.9316    
    180900   295.52001     -60.845062      30070.215      0.99484732    -8249.3583    
    181000   299.29216      605.60945      30070.215      0.99484732    -8248.0192    
    181100   297.50917      113.11089      30070.215      0.99484732    -8264.5228    
    181200   298.06026      417.56536      30070.215      0.99484732    -8285.8136    
    181300   304.82042      364.86221      30070.215      0.99484732    -8313.7796    
    181400   290.19688      172.98013      30070.215      0.99484732    -8399.3889    
    181500   294.98699      29.994399      30070.215      0.99484732    -8368.4594    
    181600   297.33328      202.81777      30070.215      0.99484732    -8321.5617    
    181700   301.75654      315.6366       30070.215      0.99484732    -8309.9933    
    181800   298.61817      56.82002       30070.215      0.99484732    -8320.5275    
    181900   297.54791     -93.436432      30070.215      0.99484732    -8293.1884    
    182000   306.03836      215.13257      30070.215      0.99484732    -8210.3461    
    182100   301.31121      177.64301      30070.215      0.99484732    -8211.2726    
    182200   302.04167      426.58099      30070.215      0.99484732    -8244.9645    
    182300   295.06665      78.32945       30070.215      0.99484732    -8297.1812    
    182400   299.85617      448.35404      30070.215      0.99484732    -8358.1899    
    182500   294.58129     -318.93778      30070.215      0.99484732    -8360.8603    
    182600   300.16839     -1057.5144      30070.215      0.99484732    -8320.6424    
    182700   303.88034     -69.183625      30070.215      0.99484732    -8284.7921    
    182800   298.21997     -450.29972      30070.215      0.99484732    -8268.1153    
    182900   292.76018     -24.160405      30070.215      0.99484732    -8231.2514    
    183000   307.65343      531.42871      30070.215      0.99484732    -8188.9309    
    183100   303.03712      176.60086      30070.215      0.99484732    -8272.7339    
    183200   301.72638      310.4118       30070.215      0.99484732    -8342.7461    
    183300   295.45509      167.13633      30070.215      0.99484732    -8346.6817    
    183400   298.31051      36.43854       30070.215      0.99484732    -8294.1337    
    183500   300.04906     -222.09311      30070.215      0.99484732    -8264.9397    
    183600   295.68897      443.30401      30070.215      0.99484732    -8293.9689    
    183700   296.07278     -297.71075      30070.215      0.99484732    -8369.1233    
    183800   297.66535      65.165537      30070.215      0.99484732    -8395.7721    
    183900   297.14963     -319.70679      30070.215      0.99484732    -8386.2279    
    184000   295.34592     -461.00788      30070.215      0.99484732    -8360.9844    
    184100   291.21207      90.768635      30070.215      0.99484732    -8314.461     
    184200   302.09433      206.6507       30070.215      0.99484732    -8284.8142    
    184300   296.80407      250.54719      30070.215      0.99484732    -8290.971     
    184400   291.69213      15.841698      30070.215      0.99484732    -8292.958     
    184500   304.44898      189.28641      30070.215      0.99484732    -8228.8038    
    184600   302.17767      310.14228      30070.215      0.99484732    -8208.9387    
    184700   294.95834     -211.09311      30070.215      0.99484732    -8260.2539    
    184800   290.98049     -492.57246      30070.215      0.99484732    -8325.5303    
    184900   293.83779     -655.45017      30070.215      0.99484732    -8305.2367    
    185000   297.80235      71.523526      30070.215      0.99484732    -8252.5592    
    185100   303.9946       47.077819      30070.215      0.99484732    -8240.4545    
    185200   305.43374     -412.8105       30070.215      0.99484732    -8263.8252    
    185300   298.34154      216.88407      30070.215      0.99484732    -8276.3376    
    185400   293.54246      114.82073      30070.215      0.99484732    -8272.1206    
    185500   301.04065     -185.31527      30070.215      0.99484732    -8217.7519    
    185600   300.04557      169.30425      30070.215      0.99484732    -8168.8345    
    185700   307.66612     -77.84116       30070.215      0.99484732    -8180.6917    
    185800   300.73419      180.73051      30070.215      0.99484732    -8270.6739    
    185900   287.88154      180.93254      30070.215      0.99484732    -8300.675     
    186000   295.51467     -193.65976      30070.215      0.99484732    -8254.6366    
    186100   303.49255      603.31852      30070.215      0.99484732    -8206.5477    
    186200   306.45261     -215.55729      30070.215      0.99484732    -8222.4205    
    186300   300.38944      346.06998      30070.215      0.99484732    -8243.2949    
    186400   303.68         247.70996      30070.215      0.99484732    -8239.8104    
    186500   306.33505     -74.909814      30070.215      0.99484732    -8224.856     
    186600   311.99851      1385.6744      30070.215      0.99484732    -8228.646     
    186700   300.75093     -399.02951      30070.215      0.99484732    -8314.716     
    186800   288.28135      623.94939      30070.215      0.99484732    -8344.6906    
    186900   298.14508      485.41272      30070.215      0.99484732    -8280.8088    
    187000   300.57027      307.45367      30070.215      0.99484732    -8245.6231    
    187100   305.12921      493.90554      30070.215      0.99484732    -8263.7733    
    187200   294.33913     -25.660138      30070.215      0.99484732    -8321.7129    
    187300   296.50491      273.27338      30070.215      0.99484732    -8333.6723    
    187400   299.4861       279.82828      30070.215      0.99484732    -8252.5427    
    187500   301.43479      281.69412      30070.215      0.99484732    -8206.9704    
    187600   303.86078     -119.43571      30070.215      0.99484732    -8245.5175    
    187700   297.36067     -263.57984      30070.215      0.99484732    -8287.2984    
    187800   292.9633      -123.95514      30070.215      0.99484732    -8257.1311    
    187900   298.37874      3.0465171      30070.215      0.99484732    -8205.9084    
    188000   294.65717     -46.894127      30070.215      0.99484732    -8181.1551    
    188100   302.29345      32.46189       30070.215      0.99484732    -8136.0525    
    188200   306.12488      84.710998      30070.215      0.99484732    -8133.197     
    188300   311.97765     -471.50364      30070.215      0.99484732    -8220.7593    
    188400   287.70385      491.66555      30070.215      0.99484732    -8270.5627    
    188500   304.97138     -285.86981      30070.215      0.99484732    -8258.3474    
    188600   307.94435     -677.14805      30070.215      0.99484732    -8249.8774    
    188700   296.1736       790.14976      30070.215      0.99484732    -8268.9817    
    188800   287.28091      231.95442      30070.215      0.99484732    -8327.6388    
    188900   301.86331      330.72079      30070.215      0.99484732    -8327.234     
    189000   299.41814      152.68893      30070.215      0.99484732    -8285.3653    
    189100   308.29573      451.84558      30070.215      0.99484732    -8215.6359    
    189200   303.03533     -114.62051      30070.215      0.99484732    -8252.6425    
    189300   300.14254     -288.20159      30070.215      0.99484732    -8305.5443    
    189400   296.09278     -34.210023      30070.215      0.99484732    -8318.0475    
    189500   288.50864      167.70573      30070.215      0.99484732    -8343.0171    
    189600   297.73494     -19.071034      30070.215      0.99484732    -8325.7068    
    189700   299.21596      356.85746      30070.215      0.99484732    -8228.6191    
    189800   303.63805      806.07153      30070.215      0.99484732    -8240.6424    
    189900   295.59732     -40.238305      30070.215      0.99484732    -8289.928     
    190000   297.58772      485.37866      30070.215      0.99484732    -8299.3938    
    190100   302.10265     -258.23357      30070.215      0.99484732    -8291.6871    
    190200   296.9358      -164.71928      30070.215      0.99484732    -8260.0731    
    190300   307.00726      23.941359      30070.215      0.99484732    -8196.575     
    190400   305.81082      486.63161      30070.215      0.99484732    -8193.2537    
    190500   294.47536      215.73969      30070.215      0.99484732    -8241.3742    
    190600   305.83458      562.18471      30070.215      0.99484732    -8275.1857    
    190700   296.3519      -92.76416       30070.215      0.99484732    -8372.4936    
    190800   295.76106      63.129956      30070.215      0.99484732    -8355.5704    
    190900   305.18388     -152.51098      30070.215      0.99484732    -8319.7187    
    191000   303.00985      130.64259      30070.215      0.99484732    -8284.3629    
    191100   312.23536     -172.55495      30070.215      0.99484732    -8224.9222    
    191200   304.9066       99.160152      30070.215      0.99484732    -8173.1839    
    191300   300.10148     -5.1380836      30070.215      0.99484732    -8165.1405    
    191400   293.38727     -575.28181      30070.215      0.99484732    -8238.4559    
    191500   301.937       -296.00203      30070.215      0.99484732    -8272.4023    
    191600   297.54845     -689.82275      30070.215      0.99484732    -8313.5191    
    191700   297.32042     -500.044        30070.215      0.99484732    -8339.8699    
    191800   299.21368      574.83777      30070.215      0.99484732    -8332.1485    
    191900   305.23538     -248.8782       30070.215      0.99484732    -8333.2111    
    192000   298.97255     -108.73618      30070.215      0.99484732    -8309.9269    
    192100   302.12031      501.89304      30070.215      0.99484732    -8256.9649    
    192200   314.63336      308.33859      30070.215      0.99484732    -8254.9235    
    192300   294.97425      191.87003      30070.215      0.99484732    -8330.5834    
    192400   300.89733     -578.41932      30070.215      0.99484732    -8330.4834    
    192500   297.69976      305.35325      30070.215      0.99484732    -8316.3841    
    192600   303.06185     -314.47901      30070.215      0.99484732    -8284.4978    
    192700   302.2678       133.13848      30070.215      0.99484732    -8216.7947    
    192800   310.42654      116.53885      30070.215      0.99484732    -8172.3874    
    192900   313.36906     -43.737915      30070.215      0.99484732    -8190.819     
    193000   298.70316      20.328306      30070.215      0.99484732    -8291.0986    
    193100   301.40745     -84.260363      30070.215      0.99484732    -8313.7322    
    193200   299.08941      326.8732       30070.215      0.99484732    -8314.5769    
    193300   301.55265      254.74138      30070.215      0.99484732    -8306.8948    
    193400   303.35074      113.5322       30070.215      0.99484732    -8317.2425    
    193500   293.33427      167.45502      30070.215      0.99484732    -8331.9124    
    193600   298.71959      230.76484      30070.215      0.99484732    -8297.8396    
    193700   302.60482     -147.08958      30070.215      0.99484732    -8239.8215    
    193800   301.15614      310.13292      30070.215      0.99484732    -8207.8733    
    193900   301.09668     -251.7209       30070.215      0.99484732    -8194.8639    
    194000   302.02283     -149.47904      30070.215      0.99484732    -8229.0902    
    194100   301.13599     -626.79451      30070.215      0.99484732    -8280.2077    
    194200   291.46421     -212.77611      30070.215      0.99484732    -8294.5329    
    194300   303.84851      160.78586      30070.215      0.99484732    -8228.4741    
    194400   302.30807     -760.98138      30070.215      0.99484732    -8204.7749    
    194500   303.98613     -777.60005      30070.215      0.99484732    -8200.3776    
    194600   300.24834      280.72855      30070.215      0.99484732    -8223.4463    
    194700   299.34496      29.164458      30070.215      0.99484732    -8255.3308    
    194800   300.83863      279.07348      30070.215      0.99484732    -8267.7569    
    194900   306.71877     -226.7693       30070.215      0.99484732    -8254.7288    
    195000   295.20522     -225.70848      30070.215      0.99484732    -8206.7509    
    195100   306.94519      266.71004      30070.215      0.99484732    -8171.0298    
    195200   293.26533     -824.86981      30070.215      0.99484732    -8236.3585    
    195300   300.21806      49.885651      30070.215      0.99484732    -8271.0191    
    195400   297.80557     -219.35631      30070.215      0.99484732    -8271.4602    
    195500   301.68875      1262.2269      30070.215      0.99484732    -8175.93      
    195600   309.59232      858.84306      30070.215      0.99484732    -8152.0246    
    195700   303.10052     -87.918437      30070.215      0.99484732    -8219.8277    
    195800   297.64318      201.52983      30070.215      0.99484732    -8264.3306    
    195900   294.61446     -228.94419      30070.215      0.99484732    -8304.8104    
    196000   302.27499     -57.952005      30070.215      0.99484732    -8304.6491    
    196100   305.10479     -438.97171      30070.215      0.99484732    -8241.4268    
    196200   311.52229      449.63013      30070.215      0.99484732    -8169.5067    
    196300   298.00243      223.5624       30070.215      0.99484732    -8186.4497    
    196400   300.70145      286.01651      30070.215      0.99484732    -8220.066     
    196500   296.9864      -172.31488      30070.215      0.99484732    -8248.9525    
    196600   288.28229     -8.2048404      30070.215      0.99484732    -8332.5575    
    196700   292.92019      534.92693      30070.215      0.99484732    -8365.3111    
    196800   299.83234      270.24922      30070.215      0.99484732    -8343.9182    
    196900   296.07656     -408.38403      30070.215      0.99484732    -8276.3089    
    197000   297.63921      308.20801      30070.215      0.99484732    -8227.5109    
    197100   304.30814      462.08379      30070.215      0.99484732    -8243.3305    
    197200   298.39736      621.26647      30070.215      0.99484732    -8281.207     
    197300   291.82375      82.22738       30070.215      0.99484732    -8313.323     
    197400   292.79887     -805.67188      30070.215      0.99484732    -8331.6866    
    197500   307.37026      978.07479      30070.215      0.99484732    -8265.0111    
    197600   304.55232      511.99037      30070.215      0.99484732    -8241.0889    
    197700   297.85479      592.3461       30070.215      0.99484732    -8267.9856    
    197800   300.88477     -436.88224      30070.215      0.99484732    -8319.5266    
    197900   301.69467     -658.06388      30070.215      0.99484732    -8379.2238    
    198000   295.93727     -137.81877      30070.215      0.99484732    -8369.7353    
    198100   308.38346     -264.5902       30070.215      0.99484732    -8284.4417    
    198200   304.39289      93.51698       30070.215      0.99484732    -8267.0524    
    198300   295.66517     -78.45242       30070.215      0.99484732    -8291.1582    
    198400   295.70052     -165.80152      30070.215      0.99484732    -8270.1232    
    198500   300.71968      429.37214      30070.215      0.99484732    -8228.9856    
    198600   303.34767      597.78125      30070.215      0.99484732    -8198.4494    
    198700   302.43925      341.25484      30070.215      0.99484732    -8167.2343    
    198800   302.69843      538.18999      30070.215      0.99484732    -8215.4095    
    198900   302.07687     -25.08057       30070.215      0.99484732    -8285.6884    
    199000   290.4121       87.72694       30070.215      0.99484732    -8293.1954    
    199100   299.93339     -218.25631      30070.215      0.99484732    -8235.2769    
    199200   304.53883      205.43149      30070.215      0.99484732    -8187.4478    
    199300   305.89929      355.07875      30070.215      0.99484732    -8204.4817    
    199400   297.05369     -296.35853      30070.215      0.99484732    -8255.3982    
    199500   296.39419      334.309        30070.215      0.99484732    -8255.0592    
    199600   297.81127      128.41031      30070.215      0.99484732    -8234.9484    
    199700   301.44013     -422.15635      30070.215      0.99484732    -8280.3848    
    199800   289.42242     -21.302276      30070.215      0.99484732    -8354.0518    
    199900   293.0193       323.25133      30070.215      0.99484732    -8348.2525    
    200000   297.98577     -653.42795      30070.215      0.99484732    -8299.0532    
    200100   298.35595      15.568937      30070.215      0.99484732    -8268.7132    
    200200   296.60923     -324.11016      30070.215      0.99484732    -8248.9468    
    200300   302.99918      218.26391      30070.215      0.99484732    -8219.1071    
    200400   298.00448     -23.335723      30070.215      0.99484732    -8216.7669    
    200500   306.19363     -173.35602      30070.215      0.99484732    -8195.8862    
    200600   300.83228      610.02037      30070.215      0.99484732    -8178.8942    
    200700   295.31604     -162.08412      30070.215      0.99484732    -8239.5001    
    200800   297.47359      36.419516      30070.215      0.99484732    -8284.696     
    200900   289.02015     -294.84693      30070.215      0.99484732    -8293.9328    
    201000   301.10316      497.3761       30070.215      0.99484732    -8230.7943    
    201100   301.24782     -54.221382      30070.215      0.99484732    -8197.6045    
    201200   301.93339     -277.30939      30070.215      0.99484732    -8190.5042    
    201300   301.34876     -128.89488      30070.215      0.99484732    -8163.0969    
    201400   307.00732     -158.14601      30070.215      0.99484732    -8132.5711    
    201500   301.40782     -1061.6476      30070.215      0.99484732    -8192.7404    
    201600   292.05531     -196.35885      30070.215      0.99484732    -8251.7465    
    201700   306.24678     -381.1593       30070.215      0.99484732    -8240.5121    
    201800   304.93216     -72.067257      30070.215      0.99484732    -8233.526     
    201900   303.81711     -24.39714       30070.215      0.99484732    -8178.6702    
    202000   309.39727      44.622164      30070.215      0.99484732    -8107.1771    
    202100   308.1588       537.77485      30070.215      0.99484732    -8146.1956    
    202200   291.22968      410.36369      30070.215      0.99484732    -8197.912     
    202300   303.1777      -8.724343       30070.215      0.99484732    -8210.5129    
    202400   297.70583     -450.72278      30070.215      0.99484732    -8214.4562    
    202500   302.64027     -215.09635      30070.215      0.99484732    -8196.5846    
    202600   304.4524      -460.68815      30070.215      0.99484732    -8213.8795    
    202700   296.20233     -287.59841      30070.215      0.99484732    -8277.1717    
    202800   299.95632     -310.81579      30070.215      0.99484732    -8292.8476    
    202900   294.25814      227.21315      30070.215      0.99484732    -8259.4231    
    203000   306.47086      384.04284      30070.215      0.99484732    -8182.8487    
    203100   294.47054     -157.59077      30070.215      0.99484732    -8186.1367    
    203200   300.71701     -491.2179       30070.215      0.99484732    -8162.0623    
    203300   306.52971      219.35839      30070.215      0.99484732    -8146.4505    
    203400   292.30094     -323.14246      30070.215      0.99484732    -8244.7099    
    203500   298.44296     -58.359939      30070.215      0.99484732    -8256.9951    
    203600   298.23681      36.73248       30070.215      0.99484732    -8227.3257    
    203700   306.9755      -507.21539      30070.215      0.99484732    -8172.55      
    203800   300.09163      505.58665      30070.215      0.99484732    -8140.3305    
    203900   298.0548       298.10575      30070.215      0.99484732    -8234.243     
    204000   292.26751      431.30658      30070.215      0.99484732    -8273.8326    
    204100   295.80131     -3.8214477      30070.215      0.99484732    -8266.5614    
    204200   294.13178     -464.81666      30070.215      0.99484732    -8235.6058    
    204300   306.72345     -180.63794      30070.215      0.99484732    -8183.0865    
    204400   298.83799     -195.2184       30070.215      0.99484732    -8185.5152    
    204500   296.33827     -450.40927      30070.215      0.99484732    -8275.5588    
    204600   291.28154      281.87641      30070.215      0.99484732    -8299.6329    
    204700   293.08067     -605.91465      30070.215      0.99484732    -8273.5481    
    204800   303.04739     -342.65896      30070.215      0.99484732    -8229.8286    
    204900   299.02344     -110.30917      30070.215      0.99484732    -8229.4717    
    205000   302.84891     -149.25848      30070.215      0.99484732    -8228.4702    
    205100   307.69529      167.44599      30070.215      0.99484732    -8240.1606    
    205200   295.5796       153.97967      30070.215      0.99484732    -8276.0619    
    205300   292.678        87.967824      30070.215      0.99484732    -8257.4392    
    205400   303.80657      548.29617      30070.215      0.99484732    -8207.8524    
    205500   297.05327      312.00659      30070.215      0.99484732    -8225.7683    
    205600   295.18745      496.44161      30070.215      0.99484732    -8237.984     
    205700   299.22407      84.694733      30070.215      0.99484732    -8270.7856    
    205800   284.53994      583.54534      30070.215      0.99484732    -8298.4268    
    205900   296.26096      298.45743      30070.215      0.99484732    -8268.8277    
    206000   302.22923     -4.490596       30070.215      0.99484732    -8219.4502    
    206100   299.43392      346.34821      30070.215      0.99484732    -8196.129     
    206200   294.57546     -54.65296       30070.215      0.99484732    -8193.0122    
    206300   306.0756      -74.012407      30070.215      0.99484732    -8179.4416    
    206400   302.35343     -286.13095      30070.215      0.99484732    -8187.163     
    206500   302.48088      33.039085      30070.215      0.99484732    -8228.4714    
    206600   295.34655      359.80955      30070.215      0.99484732    -8287.0361    
    206700   291.2485      -386.6089       30070.215      0.99484732    -8309.667     
    206800   301.62886      45.847292      30070.215      0.99484732    -8259.6457    
    206900   303.37468      99.809235      30070.215      0.99484732    -8191.892     
    207000   323.15138      542.6804       30070.215      0.99484732    -8087.4325    
    207100   311.115       -181.68162      30070.215      0.99484732    -8117.7531    
    207200   312.59666      713.96678      30070.215      0.99484732    -8186.1333    
    207300   304.19921     -94.373254      30070.215      0.99484732    -8251.0855    
    207400   294.36898     -94.807051      30070.215      0.99484732    -8293.5965    
    207500   296.47834     -517.37667      30070.215      0.99484732    -8284.3914    
    207600   302.16981     -331.54259      30070.215      0.99484732    -8223.0009    
    207700   303.45149     -270.71321      30070.215      0.99484732    -8175.8733    
    207800   303.49208     -82.565261      30070.215      0.99484732    -8184.9475    
    207900   301.8909      -254.01511      30070.215      0.99484732    -8217.0338    
    208000   302.72577      246.19013      30070.215      0.99484732    -8237.3132    
    208100   298.28309     -61.720925      30070.215      0.99484732    -8251.6456    
    208200   297.29009      23.001787      30070.215      0.99484732    -8279.3337    
    208300   297.75398     -166.04406      30070.215      0.99484732    -8364.1924    
    208400   296.28331      46.947057      30070.215      0.99484732    -8381.1258    
    208500   302.3951      -370.02238      30070.215      0.99484732    -8349.2261    
    208600   299.87387     -399.29504      30070.215      0.99484732    -8273.9793    
    208700   298.36173     -163.16654      30070.215      0.99484732    -8254.4498    
    208800   299.87111      175.16729      30070.215      0.99484732    -8247.0561    
    208900   298.68486      474.93987      30070.215      0.99484732    -8241.1347    
    209000   304.18261      335.79959      30070.215      0.99484732    -8223.7695    
    209100   304.57129      570.95059      30070.215      0.99484732    -8255.0321    
    209200   286.5334       59.074172      30070.215      0.99484732    -8317.7537    
    209300   294.73786     -342.86331      30070.215      0.99484732    -8283.7381    
    209400   306.24008      123.09397      30070.215      0.99484732    -8226.2134    
    209500   302.99568     -161.08924      30070.215      0.99484732    -8233.5272    
    209600   298.99256      140.4841       30070.215      0.99484732    -8263.6326    
    209700   298.59112     -157.0165       30070.215      0.99484732    -8310.1348    
    209800   294.21121      351.05652      30070.215      0.99484732    -8343.2064    
    209900   306.35451      4.4494184      30070.215      0.99484732    -8330.9263    
    210000   302.58378     -32.984023      30070.215      0.99484732    -8278.47      
    210100   302.5505       356.93516      30070.215      0.99484732    -8257.612     
    210200   302.89532     -269.68876      30070.215      0.99484732    -8284.7798    
    210300   302.04497     -36.853597      30070.215      0.99484732    -8362.791     
    210400   290.10142     -243.11576      30070.215      0.99484732    -8374.6352    
    210500   295.78575     -515.1681       30070.215      0.99484732    -8330.3458    
    210600   293.01567     -118.04771      30070.215      0.99484732    -8283.1168    
    210700   297.96644      810.50571      30070.215      0.99484732    -8237.7914    
    210800   306.14466     -204.33367      30070.215      0.99484732    -8245.8375    
    210900   300.40617     -120.4001       30070.215      0.99484732    -8260.8068    
    211000   296.70448     -441.89235      30070.215      0.99484732    -8219.5922    
    211100   315.5548      -130.84072      30070.215      0.99484732    -8155.6332    
    211200   309.77107     -211.17466      30070.215      0.99484732    -8195.4611    
    211300   298.36655      193.27876      30070.215      0.99484732    -8252.9337    
    211400   299.92072      305.29273      30070.215      0.99484732    -8265.9797    
    211500   306.67599     -65.886054      30070.215      0.99484732    -8271.7045    
    211600   297.4966       70.912884      30070.215      0.99484732    -8329.3893    
    211700   290.29438      405.4769       30070.215      0.99484732    -8374.4304    
    211800   299.56991      191.26623      30070.215      0.99484732    -8353.6687    
    211900   301.41955     -74.976104      30070.215      0.99484732    -8269.6824    
    212000   312.53782      506.40627      30070.215      0.99484732    -8234.3708    
    212100   297.58456     -193.59359      30070.215      0.99484732    -8266.527     
    212200   294.86476     -108.85699      30070.215      0.99484732    -8254.6058    
    212300   301.73951     -198.32808      30070.215      0.99484732    -8167.4756    
    212400   307.40016     -570.84646      30070.215      0.99484732    -8127.1532    
    212500   308.81997     -304.07621      30070.215      0.99484732    -8171.7678    
    212600   299.56712      533.29993      30070.215      0.99484732    -8231.9903    
    212700   302.59336     -21.410522      30070.215      0.99484732    -8258.4767    
    212800   294.48881     -349.69246      30070.215      0.99484732    -8282.8456    
    212900   294.8227      -126.61838      30070.215      0.99484732    -8322.6375    
    213000   296.16118     -303.6754       30070.215      0.99484732    -8380.1523    
    213100   300.01717     -319.01163      30070.215      0.99484732    -8352.0814    
    213200   303.46269      701.25759      30070.215      0.99484732    -8268.4596    
    213300   299.86525      600.38496      30070.215      0.99484732    -8268.3329    
    213400   298.39905      333.2854       30070.215      0.99484732    -8271.6213    
    213500   308.51854      90.426548      30070.215      0.99484732    -8234.1233    
    213600   303.91402      433.55213      30070.215      0.99484732    -8189.0651    
    213700   300.37971      783.83525      30070.215      0.99484732    -8185.8074    
    213800   297.059       -51.310344      30070.215      0.99484732    -8247.2423    
    213900   293.16931      256.84525      30070.215      0.99484732    -8279.6954    
    214000   304.96643      323.08379      30070.215      0.99484732    -8275.2693    
    214100   294.72963     -227.82783      30070.215      0.99484732    -8275.7494    
    214200   302.86989     -88.857792      30070.215      0.99484732    -8219.441     
    214300   300.38623      217.21992      30070.215      0.99484732    -8158.407     
    214400   306.85433      36.066599      30070.215      0.99484732    -8133.687     
    214500   303.53881      236.04655      30070.215      0.99484732    -8156.6255    
    214600   297.19557     -51.386929      30070.215      0.99484732    -8241.3306    
    214700   289.72457     -455.37114      30070.215      0.99484732    -8249.9127    
    214800   294.092        399.63399      30070.215      0.99484732    -8202.1439    
    214900   308.24951     -114.04857      30070.215      0.99484732    -8184.2313    
    215000   303.26222      367.05142      30070.215      0.99484732    -8196.428     
    215100   292.75481      650.13884      30070.215      0.99484732    -8229.0182    
    215200   289.58714      233.14903      30070.215      0.99484732    -8307.3171    
    215300   303.18305     -205.11132      30070.215      0.99484732    -8318.131     
    215400   301.20735     -102.96295      30070.215      0.99484732    -8265.0983    
    215500   301.26498      382.67244      30070.215      0.99484732    -8189.4673    
    215600   306.32802      466.31723      30070.215      0.99484732    -8185.5343    
    215700   300.05157     -147.8246       30070.215      0.99484732    -8225.8027    
    215800   298.82932      51.118314      30070.215      0.99484732    -8263.7307    
    215900   299.13859     -92.11104       30070.215      0.99484732    -8281.5368    
    216000   294.61615     -41.822269      30070.215      0.99484732    -8326.6586    
    216100   295.40985      942.62738      30070.215      0.99484732    -8339.7933    
    216200   302.27183     -103.41691      30070.215      0.99484732    -8316.1181    
    216300   300.99125      31.186256      30070.215      0.99484732    -8264.2475    
    216400   307.03644      302.08331      30070.215      0.99484732    -8216.3813    
    216500   304.99413      102.10701      30070.215      0.99484732    -8178.6144    
    216600   293.14388     -632.30919      30070.215      0.99484732    -8252.0945    
    216700   303.91056     -452.06035      30070.215      0.99484732    -8288.655     
    216800   298.40657     -395.40533      30070.215      0.99484732    -8262.2365    
    216900   306.98003      252.39863      30070.215      0.99484732    -8217.9924    
    217000   298.51782      959.00099      30070.215      0.99484732    -8203.3717    
    217100   296.10752      219.56745      30070.215      0.99484732    -8247.5181    
    217200   297.11096      108.26979      30070.215      0.99484732    -8306.6235    
    217300   301.17248      161.67789      30070.215      0.99484732    -8332.6233    
    217400   304.66228      1.6972395      30070.215      0.99484732    -8303.5913    
    217500   300.05653      107.16321      30070.215      0.99484732    -8218.5359    
    217600   302.83709     -245.95032      30070.215      0.99484732    -8215.2767    
    217700   302.71392      221.31423      30070.215      0.99484732    -8256.276     
    217800   298.90531     -129.50748      30070.215      0.99484732    -8308.2836    
    217900   292.14208     -324.765        30070.215      0.99484732    -8312.8038    
    218000   300.17323     -506.24212      30070.215      0.99484732    -8266.7215    
    218100   298.40555      94.483934      30070.215      0.99484732    -8220.3933    
    218200   307.1944       369.48439      30070.215      0.99484732    -8223.4492    
    218300   300.82141      493.73409      30070.215      0.99484732    -8272.9349    
    218400   295.78003      662.72766      30070.215      0.99484732    -8287.2528    
    218500   306.53418      99.834457      30070.215      0.99484732    -8269.7809    
    218600   291.52449      275.51519      30070.215      0.99484732    -8280.7671    
    218700   301.34239      853.48277      30070.215      0.99484732    -8227.0218    
    218800   305.1619       387.1216       30070.215      0.99484732    -8190.7223    
    218900   300.69518     -298.98132      30070.215      0.99484732    -8231.1913    
    219000   298.59934     -35.962514      30070.215      0.99484732    -8254.6884    
    219100   295.34387     -203.91125      30070.215      0.99484732    -8252.6422    
    219200   302.11884     -477.3872       30070.215      0.99484732    -8196.2333    
    219300   307.99227      614.87347      30070.215      0.99484732    -8165.9984    
    219400   294.33131     -53.200144      30070.215      0.99484732    -8210.4444    
    219500   297.51476     -76.979659      30070.215      0.99484732    -8256.338     
    219600   292.9715       49.959169      30070.215      0.99484732    -8298.759     
    219700   293.38877     -512.02315      30070.215      0.99484732    -8381.1854    
    219800   295.64523      15.289023      30070.215      0.99484732    -8395.1563    
    219900   300.36877     -167.6288       30070.215      0.99484732    -8328.6065    
    220000   298.75937     -179.49109      30070.215      0.99484732    -8284.1813    
    220100   296.40815      617.67101      30070.215      0.99484732    -8264.8649    
    220200   305.26594     -606.09477      30070.215      0.99484732    -8261.9291    
    220300   300.24371      34.227125      30070.215      0.99484732    -8293.5257    
    220400   287.0425      -25.143932      30070.215      0.99484732    -8334.9299    
    220500   302.10693     -279.14222      30070.215      0.99484732    -8324.8553    
    220600   309.44551      387.65373      30070.215      0.99484732    -8248.9217    
    220700   300.27023      634.56355      30070.215      0.99484732    -8227.2716    
    220800   299.48859      371.24861      30070.215      0.99484732    -8240.9485    
    220900   299.66765     -79.126438      30070.215      0.99484732    -8293.149     
    221000   294.50825      55.195351      30070.215      0.99484732    -8374.7717    
    221100   296.97944     -153.61672      30070.215      0.99484732    -8360.5199    
    221200   304.3045       325.11724      30070.215      0.99484732    -8317.0209    
    221300   300.64638      165.39529      30070.215      0.99484732    -8313.7123    
    221400   287.19239      406.01186      30070.215      0.99484732    -8370.5714    
    221500   291.00483     -646.54851      30070.215      0.99484732    -8437.7596    
    221600   287.63419     -96.424644      30070.215      0.99484732    -8393.2757    
    221700   293.10948      33.796282      30070.215      0.99484732    -8326.9883    
    221800   302.8294      -428.84457      30070.215      0.99484732    -8277.7041    
    221900   302.42091      308.37718      30070.215      0.99484732    -8236.3272    
    222000   303.01955     -156.04523      30070.215      0.99484732    -8189.3471    
    222100   296.16702     -106.90799      30070.215      0.99484732    -8159.7373    
    222200   304.97943     -70.233976      30070.215      0.99484732    -8163.1293    
    222300   296.29767     -662.00486      30070.215      0.99484732    -8255.6329    
    222400   294.54909     -213.53343      30070.215      0.99484732    -8280.0509    
    222500   295.06084     -556.95484      30070.215      0.99484732    -8269.9917    
    222600   305.1948      -290.09822      30070.215      0.99484732    -8209.8718    
    222700   298.11753     -74.000593      30070.215      0.99484732    -8151.3469    
    222800   304.53835      233.81181      30070.215      0.99484732    -8128.1667    
    222900   306.94468     -370.99857      30070.215      0.99484732    -8156.3106    
    223000   299.63126     -519.86482      30070.215      0.99484732    -8203.247     
    223100   299.47448     -44.717298      30070.215      0.99484732    -8223.7828    
    223200   302.50961     -174.33497      30070.215      0.99484732    -8221.9582    
    223300   301.75715      409.69157      30070.215      0.99484732    -8256.0166    
    223400   293.24251     -198.61908      30070.215      0.99484732    -8327.8239    
    223500   293.74092     -733.13817      30070.215      0.99484732    -8324.7912    
    223600   296.13892     -287.28553      30070.215      0.99484732    -8259.4867    
    223700   301.84164     -698.55624      30070.215      0.99484732    -8220.6947    
    223800   303.69409     -343.34845      30070.215      0.99484732    -8221.684     
    223900   294.97822      281.39037      30070.215      0.99484732    -8245.2974    
    224000   294.70424      105.20535      30070.215      0.99484732    -8251.5486    
    224100   307.89798     -51.255539      30070.215      0.99484732    -8204.912     
    224200   299.39015      211.28571      30070.215      0.99484732    -8183.027     
    224300   305.05741     -0.040237302    30070.215      0.99484732    -8185.5069    
    224400   294.02484      401.31954      30070.215      0.99484732    -8273.0365    
    224500   295.91128     -183.37563      30070.215      0.99484732    -8298.6001    
    224600   296.19978      646.45945      30070.215      0.99484732    -8291.9974    
    224700   301.92676     -129.45753      30070.215      0.99484732    -8320.6725    
    224800   297.64793      186.10287      30070.215      0.99484732    -8381.434     
    224900   295.86239     -408.0052       30070.215      0.99484732    -8423.6419    
    225000   293.97356     -150.77123      30070.215      0.99484732    -8406.0681    
    225100   307.07734     -574.7751       30070.215      0.99484732    -8306.2955    
    225200   303.8106      -76.789803      30070.215      0.99484732    -8275.3545    
    225300   300.60462     -26.257102      30070.215      0.99484732    -8259.4721    
    225400   313.51419      230.40484      30070.215      0.99484732    -8267.2744    
    225500   288.44283      428.85895      30070.215      0.99484732    -8340.7889    
    225600   294.7338      -334.37389      30070.215      0.99484732    -8342.51      
    225700   303.61053      134.3828       30070.215      0.99484732    -8290.5199    
    225800   305.63924     -198.00261      30070.215      0.99484732    -8287.3227    
    225900   298.89121      47.10012       30070.215      0.99484732    -8308.9726    
    226000   290.35019      98.164516      30070.215      0.99484732    -8328.0878    
    226100   299.16898     -5.938034       30070.215      0.99484732    -8302.2104    
    226200   303.64545     -293.34211      30070.215      0.99484732    -8218.7694    
    226300   300.86202      823.89707      30070.215      0.99484732    -8216.0948    
    226400   301.80978     -102.46004      30070.215      0.99484732    -8262.8592    
    226500   295.28653      365.68564      30070.215      0.99484732    -8319.4103    
    226600   290.19433     -292.76087      30070.215      0.99484732    -8331.4418    
    226700   290.06633     -110.89851      30070.215      0.99484732    -8271.9852    
    226800   303.20959      131.38528      30070.215      0.99484732    -8237.0643    
    226900   299.23769     -5.0606771      30070.215      0.99484732    -8211.6896    
    227000   302.12589      351.55123      30070.215      0.99484732    -8194.0403    
    227100   301.92461     -515.54133      30070.215      0.99484732    -8235.183     
    227200   296.89785     -536.16598      30070.215      0.99484732    -8296.5009    
    227300   298.22894      60.249336      30070.215      0.99484732    -8276.4807    
    227400   306.15425     -397.35058      30070.215      0.99484732    -8240.5202    
    227500   305.89692     -838.08491      30070.215      0.99484732    -8239.9817    
    227600   300.15047     -336.77206      30070.215      0.99484732    -8248.6457    
    227700   304.67348      155.27789      30070.215      0.99484732    -8258.751     
    227800   296.7849      -90.540311      30070.215      0.99484732    -8278.3226    
    227900   295.66607      38.499527      30070.215      0.99484732    -8314.3852    
    228000   290.99228     -381.09922      30070.215      0.99484732    -8354.9017    
    228100   299.35075     -398.57854      30070.215      0.99484732    -8302.9658    
    228200   305.6513       319.68997      30070.215      0.99484732    -8240.5827    
    228300   304.22881     -188.64527      30070.215      0.99484732    -8234.7884    
    228400   297.83142      26.099388      30070.215      0.99484732    -8241.5454    
    228500   298.80668     -598.81004      30070.215      0.99484732    -8269.6368    
    228600   292.07011     -455.16854      30070.215      0.99484732    -8327.1899    
    228700   289.68788     -159.29791      30070.215      0.99484732    -8334.4078    
    228800   297.74715      485.12781      30070.215      0.99484732    -8258.8749    
    228900   306.89065     -480.91458      30070.215      0.99484732    -8263.6923    
    229000   299.33935     -670.26796      30070.215      0.99484732    -8292.6063    
    229100   299.81795     -184.94138      30070.215      0.99484732    -8315.3967    
    229200   286.18546      636.0525       30070.215      0.99484732    -8378.3287    
    229300   290.8051      -143.57467      30070.215      0.99484732    -8394.5852    
    229400   298.03395      637.55134      30070.215      0.99484732    -8298.3522    
    229500   300.45453      42.933487      30070.215      0.99484732    -8270.6461    
    229600   301.14568     -136.15015      30070.215      0.99484732    -8252.01      
    229700   297.32292     -565.79975      30070.215      0.99484732    -8238.8567    
    229800   314.35011      43.040828      30070.215      0.99484732    -8183.1068    
    229900   300.23145      821.74108      30070.215      0.99484732    -8161.9123    
    230000   301.63624     -396.6058       30070.215      0.99484732    -8222.7919    
    230100   289.23054     -255.80482      30070.215      0.99484732    -8268.0132    
    230200   303.85511     -354.73345      30070.215      0.99484732    -8226.3112    
    230300   299.91466      428.08209      30070.215      0.99484732    -8192.8207    
    230400   303.00218      18.782656      30070.215      0.99484732    -8164.059     
    230500   305.10608     -567.07238      30070.215      0.99484732    -8125.8125    
    230600   306.315       -121.38398      30070.215      0.99484732    -8131.4029    
    230700   298.19699      449.0003       30070.215      0.99484732    -8205.972     
    230800   292.94437      339.46072      30070.215      0.99484732    -8246.4909    
    230900   301.78084     -539.10152      30070.215      0.99484732    -8241.2359    
    231000   304.56554      178.95328      30070.215      0.99484732    -8193.8998    
    231100   306.20783     -82.365174      30070.215      0.99484732    -8121.0834    
    231200   296.81627     -72.234356      30070.215      0.99484732    -8107.5905    
    231300   299.07659      531.22171      30070.215      0.99484732    -8121.8225    
    231400   291.6988       284.93202      30070.215      0.99484732    -8195.8439    
    231500   298.47616      227.14856      30070.215      0.99484732    -8207.2867    
    231600   303.53673     -56.404481      30070.215      0.99484732    -8225.7621    
    231700   292.77806     -597.4536       30070.215      0.99484732    -8291.8208    
    231800   303.56565     -220.3456       30070.215      0.99484732    -8279.4291    
    231900   297.41333     -590.50118      30070.215      0.99484732    -8244.025     
    232000   309.6452       479.19797      30070.215      0.99484732    -8151.0411    
    232100   304.7864       835.87244      30070.215      0.99484732    -8137.4789    
    232200   297.84822      311.85063      30070.215      0.99484732    -8184.3316    
    232300   303.82612     -88.488323      30070.215      0.99484732    -8224.7061    
    232400   299.48768     -173.12175      30070.215      0.99484732    -8273.9462    
    232500   295.56505     -219.6107       30070.215      0.99484732    -8265.8202    
    232600   310.97561     -164.45521      30070.215      0.99484732    -8195.8119    
    232700   306.61253      266.52908      30070.215      0.99484732    -8158.5351    
    232800   301.03968     -90.80558       30070.215      0.99484732    -8183.3939    
    232900   297.67999     -548.89695      30070.215      0.99484732    -8239.5607    
    233000   292.64748      325.9637       30070.215      0.99484732    -8287.0466    
    233100   296.17033     -237.30572      30070.215      0.99484732    -8321.2715    
    233200   297.37669     -391.47797      30070.215      0.99484732    -8323.9892    
    233300   302.56273     -42.718619      30070.215      0.99484732    -8291.3766    
    233400   307.81236     -77.796118      30070.215      0.99484732    -8243.8414    
    233500   303.25386     -366.56879      30070.215      0.99484732    -8260.3097    
    233600   296.25882     -577.40632      30070.215      0.99484732    -8302.932     
    233700   297.5581       365.34784      30070.215      0.99484732    -8300.4173    
    233800   300.62769     -121.12398      30070.215      0.99484732    -8221.8882    
    233900   304.27995      220.20096      30070.215      0.99484732    -8195.2579    
    234000   302.81687     -86.6247        30070.215      0.99484732    -8233.5654    
    234100   295.22567     -1072.1183      30070.215      0.99484732    -8294.0927    
    234200   298.25855     -334.39953      30070.215      0.99484732    -8296.7482    
    234300   300.55149      122.47057      30070.215      0.99484732    -8300.4474    
    234400   299.5102       296.36007      30070.215      0.99484732    -8315.0674    
    234500   299.43401      262.25439      30070.215      0.99484732    -8370.8648    
    234600   293.59261     -292.31305      30070.215      0.99484732    -8405.7243    
    234700   293.3158       194.57793      30070.215      0.99484732    -8339.1345    
    234800   305.98881     -69.374111      30070.215      0.99484732    -8269.8311    
    234900   302.4597       388.9451       30070.215      0.99484732    -8245.0341    
    235000   303.93774     -204.26381      30070.215      0.99484732    -8267.7549    
    235100   292.85749     -1149.8153      30070.215      0.99484732    -8312.3094    
    235200   308.33831     -196.75203      30070.215      0.99484732    -8287.8317    
    235300   299.03962     -365.84413      30070.215      0.99484732    -8281.1612    
    235400   296.51057      73.514478      30070.215      0.99484732    -8254.3813    
    235500   308.59506      255.68527      30070.215      0.99484732    -8186.67      
    235600   299.4328      -128.28184      30070.215      0.99484732    -8180.0135    
    235700   306.78412      54.172614      30070.215      0.99484732    -8211.8403    
    235800   297.63775     -50.408484      30070.215      0.99484732    -8291.7576    
    235900   297.51559      36.33422       30070.215      0.99484732    -8283.6763    
    236000   298.95648      105.46658      30070.215      0.99484732    -8301.3655    
    236100   294.79086     -509.99843      30070.215      0.99484732    -8350.8231    
    236200   304.55265     -255.82535      30070.215      0.99484732    -8313.3147    
    236300   309.13163     -311.76136      30070.215      0.99484732    -8225.5326    
    236400   297.80383     -109.74939      30070.215      0.99484732    -8227.1399    
    236500   291.59448     -72.519348      30070.215      0.99484732    -8220.6473    
    236600   310.54125      5.5550771      30070.215      0.99484732    -8175.7281    
    236700   306.68974      144.89967      30070.215      0.99484732    -8186.381     
    236800   292.87998     -177.87159      30070.215      0.99484732    -8266.2848    
    236900   297.63931     -94.513179      30070.215      0.99484732    -8279.5157    
    237000   296.90217      95.947052      30070.215      0.99484732    -8271.3155    
    237100   301.52912      147.41269      30070.215      0.99484732    -8210.5258    
    237200   310.52348     -194.26709      30070.215      0.99484732    -8149.3104    
    237300   306.30671      151.26513      30070.215      0.99484732    -8196.2932    
    237400   305.2699       469.04605      30070.215      0.99484732    -8232.473     
    237500   305.6336       160.00526      30070.215      0.99484732    -8275.7266    
    237600   295.75205      457.99942      30070.215      0.99484732    -8304.4116    
    237700   301.12956      680.82302      30070.215      0.99484732    -8296.477     
    237800   295.32539      306.40552      30070.215      0.99484732    -8316.4619    
    237900   292.66849     -270.26776      30070.215      0.99484732    -8331.3007    
    238000   300.28831     -3.8145908      30070.215      0.99484732    -8300.0505    
    238100   302.99966      162.89659      30070.215      0.99484732    -8280.6023    
    238200   312.6165       109.85546      30070.215      0.99484732    -8266.4147    
    238300   299.21962      262.96413      30070.215      0.99484732    -8321.4725    
    238400   295.26881     -919.06437      30070.215      0.99484732    -8363.6254    
    238500   301.67145     -431.9465       30070.215      0.99484732    -8331.8421    
    238600   302.69194      751.62614      30070.215      0.99484732    -8267.6255    
    238700   305.48675      16.737398      30070.215      0.99484732    -8232.2045    
    238800   298.31353      248.09042      30070.215      0.99484732    -8268.9472    
    238900   296.17154     -498.62388      30070.215      0.99484732    -8324.3778    
    239000   289.1754       37.915431      30070.215      0.99484732    -8359.8145    
    239100   295.29822      517.7503       30070.215      0.99484732    -8313.8382    
    239200   296.91739      361.81717      30070.215      0.99484732    -8269.1914    
    239300   303.99549     -349.485        30070.215      0.99484732    -8255.4831    
    239400   300.88655     -241.10793      30070.215      0.99484732    -8266.4949    
    239500   292.06122      318.99114      30070.215      0.99484732    -8343.1889    
    239600   292.23639     -156.78482      30070.215      0.99484732    -8372.9991    
    239700   302.6536      -88.722428      30070.215      0.99484732    -8326.2779    
    239800   296.14065     -388.35112      30070.215      0.99484732    -8278.9044    
    239900   295.84369      552.7975       30070.215      0.99484732    -8244.0706    
    240000   305.49995      28.163017      30070.215      0.99484732    -8226.4299    
    240100   294.08971      138.34792      30070.215      0.99484732    -8287.4542    
    240200   291.20084     -55.625333      30070.215      0.99484732    -8351.514     
    240300   302.59927     -475.03166      30070.215      0.99484732    -8316.8965    
    240400   296.00448      452.26373      30070.215      0.99484732    -8245.3101    
    240500   315.27766      350.93541      30070.215      0.99484732    -8227.5516    
    240600   301.00956      92.921161      30070.215      0.99484732    -8279.6427    
    240700   292.39713     -535.07636      30070.215      0.99484732    -8310.9988    
    240800   298.97152     -1037.4823      30070.215      0.99484732    -8282.2026    
    240900   301.81316      26.070083      30070.215      0.99484732    -8241.3245    
    241000   296.73984      91.369822      30070.215      0.99484732    -8244.1875    
    241100   298.63113      399.09442      30070.215      0.99484732    -8274.2074    
    241200   297.98962     -134.53356      30070.215      0.99484732    -8291.0503    
    241300   306.68994     -115.31914      30070.215      0.99484732    -8226.9096    
    241400   309.20357      637.08281      30070.215      0.99484732    -8180.3952    
    241500   305.45031      208.284        30070.215      0.99484732    -8215.8283    
    241600   302.22106     -62.452534      30070.215      0.99484732    -8267.2149    
    241700   291.2289       58.482136      30070.215      0.99484732    -8271.8254    
    241800   300.07254      160.65767      30070.215      0.99484732    -8230.5285    
    241900   295.96871      275.09527      30070.215      0.99484732    -8218.1836    
    242000   298.67865      203.06785      30070.215      0.99484732    -8249.345     
    242100   294.15349      286.62589      30070.215      0.99484732    -8286.7159    
    242200   286.11646      157.92474      30070.215      0.99484732    -8390.4775    
    242300   291.28818     -24.45589       30070.215      0.99484732    -8388.3365    
    242400   297.55523      84.596492      30070.215      0.99484732    -8319.8095    
    242500   304.13297     -96.934921      30070.215      0.99484732    -8285.4541    
    242600   301.63066      564.90663      30070.215      0.99484732    -8282.7854    
    242700   298.68485     -158.70483      30070.215      0.99484732    -8324.8683    
    242800   290.16826     -670.57708      30070.215      0.99484732    -8377.6096    
    242900   302.39028     -836.66311      30070.215      0.99484732    -8315.1076    
    243000   298.29102      178.3765       30070.215      0.99484732    -8252.0842    
    243100   302.68263     -228.54278      30070.215      0.99484732    -8236.8012    
    243200   305.01494     -385.83256      30070.215      0.99484732    -8243.9811    
    243300   293.00363     -363.61174      30070.215      0.99484732    -8296.2653    
    243400   296.5733       143.57812      30070.215      0.99484732    -8312.185     
    243500   302.59111      88.108814      30070.215      0.99484732    -8250.7353    
    243600   301.64568     -109.61261      30070.215      0.99484732    -8188.6338    
    243700   307.91994     -319.14032      30070.215      0.99484732    -8190.1406    
    243800   298.10791      59.119634      30070.215      0.99484732    -8221.5557    
    243900   296.93759     -105.82515      30070.215      0.99484732    -8293.1054    
    244000   296.53221      173.14738      30070.215      0.99484732    -8351.281     
    244100   297.21988      397.21887      30070.215      0.99484732    -8324.6898    
    244200   299.23576     -568.22717      30070.215      0.99484732    -8270.3629    
    244300   296.5055       116.11933      30070.215      0.99484732    -8226.0193    
    244400   301.47756      1.326985       30070.215      0.99484732    -8206.0605    
    244500   305.11285      350.9567       30070.215      0.99484732    -8218.2123    
    244600   303.26592     -36.221781      30070.215      0.99484732    -8298.244     
    244700   293.14208     -232.41035      30070.215      0.99484732    -8316.6945    
    244800   299.06969      234.438        30070.215      0.99484732    -8282.6627    
    244900   295.71211      4.5499013      30070.215      0.99484732    -8258.3889    
    245000   306.48992     -268.33054      30070.215      0.99484732    -8240.2285    
    245100   291.46066      166.32697      30070.215      0.99484732    -8312.8243    
    245200   295.37139     -264.98096      30070.215      0.99484732    -8358.6556    
    245300   293.77946      129.06655      30070.215      0.99484732    -8320.7631    
    245400   292.43326     -384.2458       30070.215      0.99484732    -8261.5277    
    245500   305.85966      1.3657909      30070.215      0.99484732    -8203.8318    
    245600   298.05048      401.81485      30070.215      0.99484732    -8195.0519    
    245700   301.25714      354.02977      30070.215      0.99484732    -8200.6213    
    245800   294.34626      405.25454      30070.215      0.99484732    -8268.7081    
    245900   298.03565     -501.25788      30070.215      0.99484732    -8302.6894    
    246000   301.26874     -34.540245      30070.215      0.99484732    -8276.9122    
    246100   309.39032     -113.70037      30070.215      0.99484732    -8185.3443    
    246200   311.76707     -60.465807      30070.215      0.99484732    -8182.5846    
    246300   299.81415      131.78217      30070.215      0.99484732    -8230.8025    
    246400   294.42505      83.041089      30070.215      0.99484732    -8234.7452    
    246500   299.8124       324.11613      30070.215      0.99484732    -8181.0057    
    246600   310.41863      12.701383      30070.215      0.99484732    -8150.6257    
    246700   295.81199      29.691204      30070.215      0.99484732    -8202.6334    
    246800   294.7231      -413.19019      30070.215      0.99484732    -8296.0978    
    246900   296.98365     -364.79684      30070.215      0.99484732    -8283.186     
    247000   295.8859       404.26282      30070.215      0.99484732    -8245.3767    
    247100   295.28413      385.83041      30070.215      0.99484732    -8192.9556    
    247200   302.87912      924.29157      30070.215      0.99484732    -8137.5043    
    247300   302.71169     -21.410275      30070.215      0.99484732    -8151.4204    
    247400   298.07125      109.99812      30070.215      0.99484732    -8192.2717    
    247500   291.06578      447.88537      30070.215      0.99484732    -8223.3719    
    247600   303.1707       780.60589      30070.215      0.99484732    -8226.3044    
    247700   299.57375      321.14048      30070.215      0.99484732    -8258.759     
    247800   304.65202      63.79872       30070.215      0.99484732    -8279.6917    
    247900   302.35533      156.17185      30070.215      0.99484732    -8264.4025    
    248000   303.58224     -270.13773      30070.215      0.99484732    -8231.5854    
    248100   305.23452     -570.46362      30070.215      0.99484732    -8231.6709    
    248200   291.81724     -376.12268      30070.215      0.99484732    -8282.2779    
    248300   293.67374     -617.10376      30070.215      0.99484732    -8300.019     
    248400   306.70583      1.9995059      30070.215      0.99484732    -8219.207     
    248500   311.65267     -425.69098      30070.215      0.99484732    -8215.1494    
    248600   293.14343     -59.289841      30070.215      0.99484732    -8270.3601    
    248700   300.02836     -527.75556      30070.215      0.99484732    -8279.2611    
    248800   295.55847     -332.55239      30070.215      0.99484732    -8247.4472    
    248900   303.99513     -573.77191      30070.215      0.99484732    -8190.9143    
    249000   301.21652     -74.948419      30070.215      0.99484732    -8143.5742    
    249100   308.423       -14.06048       30070.215      0.99484732    -8054.6369    
    249200   314.54918      123.49811      30070.215      0.99484732    -8104.359     
    249300   304.86376     -800.7084       30070.215      0.99484732    -8174.0419    
    249400   302.81787     -632.04372      30070.215      0.99484732    -8200.6599    
    249500   300.49584     -208.10316      30070.215      0.99484732    -8232.2823    
    249600   301.79409      12.155723      30070.215      0.99484732    -8292.4896    
    249700   299.91919     -340.51044      30070.215      0.99484732    -8342.5966    
    249800   296.84405     -273.98846      30070.215      0.99484732    -8333.7119    
    249900   295.92452      41.37764       30070.215      0.99484732    -8311.3841    
    250000   295.73359     -248.62229      30070.215      0.99484732    -8289.6688    
    250100   300.20327     -127.67449      30070.215      0.99484732    -8247.6558    
    250200   303.15156      152.56476      30070.215      0.99484732    -8190.5978    
    250300   300.03283      259.82594      30070.215      0.99484732    -8184.4108    
    250400   299.96189      54.865249      30070.215      0.99484732    -8197.2161    
    250500   304.67447      258.61976      30070.215      0.99484732    -8238.9817    
    250600   296.08032     -202.32952      30070.215      0.99484732    -8299.1557    
    250700   298.09632      73.79838       30070.215      0.99484732    -8292.2958    
    250800   306.45069      267.65767      30070.215      0.99484732    -8257.6577    
    250900   306.26431      77.9545        30070.215      0.99484732    -8246.4223    
    251000   290.55124     -222.77889      30070.215      0.99484732    -8295.3525    
    251100   284.45854      159.94277      30070.215      0.99484732    -8343.3036    
    251200   297.42333     -228.4034       30070.215      0.99484732    -8295.3913    
    251300   303.80793      605.25222      30070.215      0.99484732    -8229.7531    
    251400   300.30145     -2.0300715      30070.215      0.99484732    -8221.8541    
    251500   283.94027     -358.87479      30070.215      0.99484732    -8238.9994    
    251600   312.50055      145.19145      30070.215      0.99484732    -8162.4583    
    251700   314.08316      842.70845      30070.215      0.99484732    -8163.8513    
    251800   305.20254      540.99574      30070.215      0.99484732    -8237.6835    
    251900   298.75503      381.00554      30070.215      0.99484732    -8299.8923    
    252000   298.93199     -401.8044       30070.215      0.99484732    -8338.6214    
    252100   298.26761     -982.9438       30070.215      0.99484732    -8358.9       
    252200   298.37929      28.895764      30070.215      0.99484732    -8305.206     
    252300   307.26532      286.23511      30070.215      0.99484732    -8239.9199    
    252400   299.29091      447.92351      30070.215      0.99484732    -8248.1272    
    252500   305.47516      165.66657      30070.215      0.99484732    -8272.9228    
    252600   289.61235      227.7735       30070.215      0.99484732    -8327.6634    
    252700   291.90031      583.2429       30070.215      0.99484732    -8303.4079    
    252800   307.56393      196.60125      30070.215      0.99484732    -8213.4058    
    252900   306.06735      218.68053      30070.215      0.99484732    -8238.171     
    253000   300.36396     -98.066181      30070.215      0.99484732    -8288.9529    
    253100   298.51991      386.14844      30070.215      0.99484732    -8308.5228    
    253200   305.52362     -556.50391      30070.215      0.99484732    -8285.0222    
    253300   302.91965      491.35293      30070.215      0.99484732    -8204.3573    
    253400   309.0071      -404.21654      30070.215      0.99484732    -8173.1782    
    253500   296.35516      519.54405      30070.215      0.99484732    -8188.2206    
    253600   296.08182      436.87677      30070.215      0.99484732    -8255.9451    
    253700   296.00446     -50.001774      30070.215      0.99484732    -8315.5836    
    253800   297.95681      166.53772      30070.215      0.99484732    -8297.7972    
    253900   300.25388     -140.32338      30070.215      0.99484732    -8271.8736    
    254000   308.30453      45.716274      30070.215      0.99484732    -8234.0987    
    254100   303.53798     -271.44675      30070.215      0.99484732    -8203.0059    
    254200   306.51523     -162.40516      30070.215      0.99484732    -8170.0059    
    254300   303.33258     -283.486        30070.215      0.99484732    -8182.4259    
    254400   293.77709     -195.13315      30070.215      0.99484732    -8255.8391    
    254500   301.70603      235.31888      30070.215      0.99484732    -8288.5321    
    254600   296.76455      485.85318      30070.215      0.99484732    -8290.6318    
    254700   304.99679     -331.31761      30070.215      0.99484732    -8287.5367    
    254800   296.37916     -334.22223      30070.215      0.99484732    -8296.6991    
    254900   307.75504     -431.12359      30070.215      0.99484732    -8299.8926    
    255000   292.72773     -167.04634      30070.215      0.99484732    -8346.289     
    255100   295.00646     -256.64686      30070.215      0.99484732    -8369.6436    
    255200   292.24335     -48.435347      30070.215      0.99484732    -8362.7214    
    255300   300.77121     -87.708471      30070.215      0.99484732    -8276.0878    
    255400   297.32748      477.86042      30070.215      0.99484732    -8238.6298    
    255500   303.79931      244.12803      30070.215      0.99484732    -8220.7543    
    255600   305.33997     -212.84569      30070.215      0.99484732    -8266.3836    
    255700   298.03893     -330.41599      30070.215      0.99484732    -8339.0827    
    255800   284.54076      461.98333      30070.215      0.99484732    -8337.3077    
    255900   300.40969      174.41723      30070.215      0.99484732    -8288.0923    
    256000   303.0828       516.42697      30070.215      0.99484732    -8274.8448    
    256100   298.6277       304.07362      30070.215      0.99484732    -8339.7432    
    256200   296.60692     -449.2925       30070.215      0.99484732    -8395.2803    
    256300   301.19683     -409.88442      30070.215      0.99484732    -8368.2886    
    256400   292.88184      1.62563        30070.215      0.99484732    -8296.4417    
    256500   309.87292     -528.57161      30070.215      0.99484732    -8248.1078    
    256600   300.58332      793.61216      30070.215      0.99484732    -8258.2184    
    256700   300.60339      297.08898      30070.215      0.99484732    -8317.3919    
    256800   292.17778      190.56559      30070.215      0.99484732    -8343.4585    
    256900   293.60466      277.10782      30070.215      0.99484732    -8293.1997    
    257000   299.87467     -111.58919      30070.215      0.99484732    -8271.5127    
    257100   298.18631      989.15911      30070.215      0.99484732    -8267.1444    
    257200   304.85269      122.09927      30070.215      0.99484732    -8285.5312    
    257300   298.26445      435.6894       30070.215      0.99484732    -8298.0225    
    257400   301.21527      503.32246      30070.215      0.99484732    -8271.7032    
    257500   297.49896      278.47529      30070.215      0.99484732    -8213.5091    
    257600   304.37961      161.15363      30070.215      0.99484732    -8192.2398    
    257700   295.65459      121.82211      30070.215      0.99484732    -8218.5301    
    257800   298.59297     -273.10493      30070.215      0.99484732    -8292.0297    
    257900   296.29495     -369.80594      30070.215      0.99484732    -8332.5034    
    258000   301.25155     -402.51584      30070.215      0.99484732    -8323.7568    
    258100   296.03588      98.964803      30070.215      0.99484732    -8260.3889    
    258200   307.26824     -145.90569      30070.215      0.99484732    -8196.247     
    258300   302.45243      54.177463      30070.215      0.99484732    -8201.6823    
    258400   301.03769     -122.90515      30070.215      0.99484732    -8226.968     
    258500   298.54204     -228.9981       30070.215      0.99484732    -8237.3637    
    258600   311.15123     -18.375154      30070.215      0.99484732    -8179.6441    
    258700   308.46186     -874.09743      30070.215      0.99484732    -8172.4012    
    258800   309.85024     -170.95337      30070.215      0.99484732    -8237.8062    
    258900   291.03968     -453.09412      30070.215      0.99484732    -8300.4224    
    259000   290.49715     -375.42131      30070.215      0.99484732    -8286.8773    
    259100   297.29486     -239.86902      30070.215      0.99484732    -8224.0893    
    259200   308.83194     -168.42454      30070.215      0.99484732    -8189.0753    
    259300   300.47677     -41.081337      30070.215      0.99484732    -8200.8237    
    259400   304.59429      65.213773      30070.215      0.99484732    -8234.1835    
    259500   302.81451     -672.91249      30070.215      0.99484732    -8313.5278    
    259600   296.79916     -554.58469      30070.215      0.99484732    -8359.1838    
    259700   301.71092     -45.08425       30070.215      0.99484732    -8339.6444    
    259800   304.54259      161.01507      30070.215      0.99484732    -8304.1391    
    259900   300.87135     -310.26856      30070.215      0.99484732    -8307.1904    
    260000   292.22281      379.27799      30070.215      0.99484732    -8314.3425    
    260100   301.16524      95.665923      30070.215      0.99484732    -8269.7306    
    260200   306.95661      711.33069      30070.215      0.99484732    -8235.5589    
    260300   296.49535     -607.82863      30070.215      0.99484732    -8292.9705    
    260400   293.7951      -753.44022      30070.215      0.99484732    -8302.5574    
    260500   299.61008     -52.331596      30070.215      0.99484732    -8263.3048    
    260600   307.84837     -51.154111      30070.215      0.99484732    -8242.6881    
    260700   303.71332     -641.39933      30070.215      0.99484732    -8255.6187    
    260800   294.97818     -420.01698      30070.215      0.99484732    -8304.3281    
    260900   291.41342     -504.06864      30070.215      0.99484732    -8315.6141    
    261000   305.6145       58.812417      30070.215      0.99484732    -8222.4741    
    261100   302.38874      536.52657      30070.215      0.99484732    -8186.3328    
    261200   307.99347     -237.68948      30070.215      0.99484732    -8211.1255    
    261300   301.25151      64.034747      30070.215      0.99484732    -8266.5638    
    261400   292.47833      221.65334      30070.215      0.99484732    -8309.6915    
    261500   295.27489     -91.310245      30070.215      0.99484732    -8320.578     
    261600   298.15351      289.65518      30070.215      0.99484732    -8294.696     
    261700   305.00161      354.39633      30070.215      0.99484732    -8191.4999    
    261800   299.60808     -166.2745       30070.215      0.99484732    -8197.4049    
    261900   306.59377      332.54057      30070.215      0.99484732    -8240.9771    
    262000   297.67826     -167.45862      30070.215      0.99484732    -8307.8165    
    262100   294.76363     -66.466655      30070.215      0.99484732    -8321.5192    
    262200   291.71799      209.44707      30070.215      0.99484732    -8293.3933    
    262300   299.0802       581.14983      30070.215      0.99484732    -8243.9069    
    262400   306.27915      86.539278      30070.215      0.99484732    -8222.6268    
    262500   297.79227      357.09337      30070.215      0.99484732    -8235.9425    
    262600   300.53388      127.75838      30070.215      0.99484732    -8238.5424    
    262700   302.86149     -854.4291       30070.215      0.99484732    -8192.8979    
    262800   305.36815     -37.38163       30070.215      0.99484732    -8145.8321    
    262900   295.54394      317.99482      30070.215      0.99484732    -8217.8632    
    263000   305.52279     -458.60723      30070.215      0.99484732    -8277.0092    
    263100   296.91886      303.73394      30070.215      0.99484732    -8281.6024    
    263200   299.76312     -343.4126       30070.215      0.99484732    -8272.0404    
    263300   303.63074      197.27912      30070.215      0.99484732    -8235.5521    
    263400   306.86979      217.65301      30070.215      0.99484732    -8199.1963    
    263500   308.35293     -203.70103      30070.215      0.99484732    -8169.2403    
    263600   299.89181     -100.80627      30070.215      0.99484732    -8237.0557    
    263700   301.45471     -234.39447      30070.215      0.99484732    -8289.1232    
    263800   293.94183     -513.13476      30070.215      0.99484732    -8311.3031    
    263900   303.69627      196.21368      30070.215      0.99484732    -8282.1868    
    264000   301.55253     -282.53497      30070.215      0.99484732    -8266.0755    
    264100   305.37726      489.21238      30070.215      0.99484732    -8190.9429    
    264200   303.7048      -59.968859      30070.215      0.99484732    -8141.9073    
    264300   307.1828      -182.05955      30070.215      0.99484732    -8143.0628    
    264400   298.67576     -115.41967      30070.215      0.99484732    -8204.3352    
    264500   297.48503      36.735315      30070.215      0.99484732    -8255.4866    
    264600   293.3859      -250.48057      30070.215      0.99484732    -8264.6259    
    264700   302.09042     -402.86773      30070.215      0.99484732    -8247.0525    
    264800   297.30021     -221.38958      30070.215      0.99484732    -8211.3232    
    264900   308.1119       316.84136      30070.215      0.99484732    -8137.1924    
    265000   314.81939      358.00837      30070.215      0.99484732    -8068.885     
    265100   317.90512      121.44173      30070.215      0.99484732    -8057.9292    
    265200   305.8627      -394.80573      30070.215      0.99484732    -8162.9859    
    265300   295.84631     -283.42175      30070.215      0.99484732    -8210.8971    
    265400   302.2585      -142.39859      30070.215      0.99484732    -8216.2575    
    265500   300.86321     -641.03415      30070.215      0.99484732    -8279.1092    
    265600   291.95313     -225.18201      30070.215      0.99484732    -8329.8435    
    265700   304.72659     -660.61452      30070.215      0.99484732    -8308.2371    
    265800   295.47244      211.44039      30070.215      0.99484732    -8275.6373    
    265900   305.27049      218.37899      30070.215      0.99484732    -8196.4673    
    266000   311.77176     -315.74427      30070.215      0.99484732    -8167.7177    
    266100   303.14152      62.086955      30070.215      0.99484732    -8202.6968    
    266200   295.42943      2.6430371      30070.215      0.99484732    -8230.1687    
    266300   300.56237      15.03624       30070.215      0.99484732    -8217.3182    
    266400   302.52527     -56.804499      30070.215      0.99484732    -8216.6885    
    266500   291.54606      311.09556      30070.215      0.99484732    -8271.6089    
    266600   294.13649      483.95019      30070.215      0.99484732    -8309.5626    
    266700   288.81507      839.86469      30070.215      0.99484732    -8314.96      
    266800   303.35937      320.30735      30070.215      0.99484732    -8237.242     
    266900   302.90061      160.39693      30070.215      0.99484732    -8204.1878    
    267000   296.32531      418.25863      30070.215      0.99484732    -8196.2292    
    267100   302.02333      417.49102      30070.215      0.99484732    -8178.3572    
    267200   298.28353      93.629259      30070.215      0.99484732    -8230.4288    
    267300   299.49959     -548.7455       30070.215      0.99484732    -8300.5448    
    267400   300.0491       26.434457      30070.215      0.99484732    -8307.4575    
    267500   296.06773     -3.2713745      30070.215      0.99484732    -8311.464     
    267600   302.4212      -112.69869      30070.215      0.99484732    -8246.5215    
    267700   305.21871      557.14675      30070.215      0.99484732    -8196.4803    
    267800   308.34907      324.39348      30070.215      0.99484732    -8223.1818    
    267900   294.57201      7.8958196      30070.215      0.99484732    -8277.8609    
    268000   296.30474      305.98237      30070.215      0.99484732    -8284.0896    
    268100   303.36229      14.958434      30070.215      0.99484732    -8274.7152    
    268200   297.94328      254.2808       30070.215      0.99484732    -8264.9297    
    268300   300.00818     -197.47188      30070.215      0.99484732    -8233.2338    
    268400   306.42183      766.18474      30070.215      0.99484732    -8151.6873    
    268500   315.40941     -111.24852      30070.215      0.99484732    -8132.6704    
    268600   302.04767     -416.96584      30070.215      0.99484732    -8212.1677    
    268700   294.13508      98.354474      30070.215      0.99484732    -8213.0706    
    268800   297.69286     -398.47026      30070.215      0.99484732    -8167.824     
    268900   306.89448      232.80426      30070.215      0.99484732    -8129.4388    
    269000   307.53837     -60.852157      30070.215      0.99484732    -8159.9112    
    269100   303.51925      120.13406      30070.215      0.99484732    -8252.0956    
    269200   298.62182      300.35258      30070.215      0.99484732    -8270.416     
    269300   287.53682      710.35423      30070.215      0.99484732    -8270.008     
    269400   301.64605     -510.44554      30070.215      0.99484732    -8213.6202    
    269500   308.61116     -58.175911      30070.215      0.99484732    -8164.5841    
    269600   302.35128      258.35267      30070.215      0.99484732    -8155.5255    
    269700   294.56535      60.486496      30070.215      0.99484732    -8200.137     
    269800   291.5642      -266.67883      30070.215      0.99484732    -8285.6504    
    269900   297.35205     -172.97134      30070.215      0.99484732    -8273.007     
    270000   300.09847     -10.077058      30070.215      0.99484732    -8250.8249    
    270100   295.5769      -73.311147      30070.215      0.99484732    -8199.2141    
    270200   305.99975      519.34835      30070.215      0.99484732    -8125.9453    
    270300   315.41011     -590.80704      30070.215      0.99484732    -8136.1651    
    270400   302.2322       107.31716      30070.215      0.99484732    -8188.1501    
    270500   295.18766     -80.094031      30070.215      0.99484732    -8221.2011    
    270600   291.11299     -98.309425      30070.215      0.99484732    -8219.1889    
    270700   305.16719     -241.73225      30070.215      0.99484732    -8146.474     
    270800   306.62326     -192.95758      30070.215      0.99484732    -8102.1875    
    270900   298.05871      154.51514      30070.215      0.99484732    -8121.2687    
    271000   304.56707     -561.94058      30070.215      0.99484732    -8157.8019    
    271100   298.02644      785.79162      30070.215      0.99484732    -8192.9388    
    271200   298.89815     -8.572945       30070.215      0.99484732    -8224.4155    
    271300   304.74795      112.83413      30070.215      0.99484732    -8243.37      
    271400   295.77935      12.838364      30070.215      0.99484732    -8286.1919    
    271500   288.72992     -211.30273      30070.215      0.99484732    -8356.4939    
    271600   292.27748     -21.614937      30070.215      0.99484732    -8330.7181    
    271700   300.88516      450.14546      30070.215      0.99484732    -8252.833     
    271800   297.34903     -437.53228      30070.215      0.99484732    -8237.9246    
    271900   294.12331      303.3947       30070.215      0.99484732    -8225.8947    
    272000   306.23923      162.86737      30070.215      0.99484732    -8188.7209    
    272100   310.06096      72.631456      30070.215      0.99484732    -8154.9717    
    272200   310.45248     -266.53585      30070.215      0.99484732    -8177.9775    
    272300   296.88023     -268.87223      30070.215      0.99484732    -8258.6329    
    272400   294.98154      5.2829577      30070.215      0.99484732    -8271.6405    
    272500   296.21904     -524.65503      30070.215      0.99484732    -8266.9361    
    272600   298.50473     -164.74473      30070.215      0.99484732    -8214.9158    
    272700   307.74185      373.58732      30070.215      0.99484732    -8160.1695    
    272800   298.18586      630.13097      30070.215      0.99484732    -8191.8118    
    272900   290.41378      326.49209      30070.215      0.99484732    -8276.477     
    273000   296.53341     -33.789912      30070.215      0.99484732    -8285.1929    
    273100   299.85804      194.19789      30070.215      0.99484732    -8255.9142    
    273200   303.34495      779.37679      30070.215      0.99484732    -8217.7169    
    273300   311.9032       200.23204      30070.215      0.99484732    -8191.2438    
    273400   297.93788      95.574502      30070.215      0.99484732    -8201.2317    
    273500   301.92951     -130.03026      30070.215      0.99484732    -8253.9071    
    273600   293.61908      206.4566       30070.215      0.99484732    -8302.2435    
    273700   291.80065     -77.018129      30070.215      0.99484732    -8296.5059    
    273800   307.18161      212.95647      30070.215      0.99484732    -8232.1691    
    273900   302.99623      513.4959       30070.215      0.99484732    -8198.1607    
    274000   308.28141     -259.79615      30070.215      0.99484732    -8181.1741    
    274100   308.69981      369.99494      30070.215      0.99484732    -8167.3973    
    274200   291.41803      802.98514      30070.215      0.99484732    -8221.3532    
    274300   300.81038      376.61575      30070.215      0.99484732    -8235.8656    
    274400   299.04935     -487.87921      30070.215      0.99484732    -8255.781     
    274500   295.02708     -751.36838      30070.215      0.99484732    -8309.2586    
    274600   293.22433     -498.44528      30070.215      0.99484732    -8336.9026    
    274700   297.05188     -261.37822      30070.215      0.99484732    -8303.7797    
    274800   295.02224      217.77398      30070.215      0.99484732    -8210.1236    
    274900   303.97277      175.79847      30070.215      0.99484732    -8195.051     
    275000   301.79655      101.16714      30070.215      0.99484732    -8223.6097    
    275100   305.13741     -934.92794      30070.215      0.99484732    -8280.9628    
    275200   292.68688     -331.83316      30070.215      0.99484732    -8308.3482    
    275300   303.81497     -45.92126       30070.215      0.99484732    -8268.2787    
    275400   306.19944      11.179863      30070.215      0.99484732    -8174.8018    
    275500   303.55831      358.16662      30070.215      0.99484732    -8156.2453    
    275600   295.9788      -277.22039      30070.215      0.99484732    -8216.4379    
    275700   299.58977      37.631373      30070.215      0.99484732    -8218.2854    
    275800   308.46534      83.87339       30070.215      0.99484732    -8192.6579    
    275900   304.69372      334.21688      30070.215      0.99484732    -8187.5926    
    276000   295.9954      -611.83609      30070.215      0.99484732    -8250.2334    
    276100   299.17447     -183.993        30070.215      0.99484732    -8285.2943    
    276200   306.24768      11.004772      30070.215      0.99484732    -8252.997     
    276300   303.93588     -318.9453       30070.215      0.99484732    -8189.2713    
    276400   300.79941      350.91641      30070.215      0.99484732    -8127.9103    
    276500   304.33794     -11.65375       30070.215      0.99484732    -8149.7761    
    276600   296.84737      282.999        30070.215      0.99484732    -8189.4286    
    276700   299.66997      47.086872      30070.215      0.99484732    -8184.2594    
    276800   303.15442      382.65624      30070.215      0.99484732    -8182.0866    
    276900   292.10948     -146.27793      30070.215      0.99484732    -8260.3605    
    277000   297.30961     -265.1771       30070.215      0.99484732    -8283.3545    
    277100   298.73595     -462.66931      30070.215      0.99484732    -8241.5577    
    277200   307.23437      219.92053      30070.215      0.99484732    -8182.17      
    277300   298.74469     -119.44941      30070.215      0.99484732    -8191.243     
    277400   303.15279      497.62768      30070.215      0.99484732    -8194.8589    
    277500   302.30749     -932.43993      30070.215      0.99484732    -8232.0174    
    277600   288.71234     -296.85773      30070.215      0.99484732    -8324.2214    
    277700   297.30964      214.77624      30070.215      0.99484732    -8326.9607    
    277800   297.26664      618.28463      30070.215      0.99484732    -8319.6821    
    277900   299.75938     -84.618955      30070.215      0.99484732    -8302.3289    
    278000   300.38531     -178.65332      30070.215      0.99484732    -8257.1544    
    278100   300.21617     -292.13852      30070.215      0.99484732    -8187.0433    
    278200   302.06081      72.756776      30070.215      0.99484732    -8200.5598    
    278300   304.84423     -333.58506      30070.215      0.99484732    -8254.0716    
    278400   301.5183      -398.2883       30070.215      0.99484732    -8270.3471    
    278500   297.7623      -24.986108      30070.215      0.99484732    -8276.7171    
    278600   302.49814     -110.24271      30070.215      0.99484732    -8270.462     
    278700   302.30836     -242.56814      30070.215      0.99484732    -8239.4939    
    278800   306.27014     -65.434626      30070.215      0.99484732    -8166.4362    
    278900   304.52733     -37.213864      30070.215      0.99484732    -8158.7716    
    279000   302.39401     -87.084528      30070.215      0.99484732    -8223.1352    
    279100   298.99976     -481.72086      30070.215      0.99484732    -8255.9514    
    279200   309.40827     -722.29713      30070.215      0.99484732    -8266.0241    
    279300   295.67955     -39.703609      30070.215      0.99484732    -8289.9908    
    279400   293.01831      452.57826      30070.215      0.99484732    -8274.2056    
    279500   316.71761      38.930334      30070.215      0.99484732    -8178.8972    
    279600   299.76906      213.24255      30070.215      0.99484732    -8204.067     
    279700   305.28048     -389.36643      30070.215      0.99484732    -8238.8017    
    279800   302.5722      -195.7393       30070.215      0.99484732    -8270.9775    
    279900   305.70054     -1009.2921      30070.215      0.99484732    -8288.2735    
    280000   297.29859     -41.334113      30070.215      0.99484732    -8282.9831    
    280100   298.75738      83.143496      30070.215      0.99484732    -8276.1854    
    280200   302.47157      212.81635      30070.215      0.99484732    -8267.3073    
    280300   304.80638     -188.41523      30070.215      0.99484732    -8247.6857    
    280400   313.26323     -119.26293      30070.215      0.99484732    -8226.9082    
    280500   299.03989      64.520236      30070.215      0.99484732    -8308.8093    
    280600   289.90406     -253.47588      30070.215      0.99484732    -8348.5678    
    280700   292.31763      448.76326      30070.215      0.99484732    -8311.6314    
    280800   298.70054      429.61949      30070.215      0.99484732    -8253.6223    
    280900   301.96963     -311.52527      30070.215      0.99484732    -8241.925     
    281000   294.62496      64.519654      30070.215      0.99484732    -8240.0889    
    281100   306.39624      146.92503      30070.215      0.99484732    -8187.7756    
    281200   306.00298      767.69131      30070.215      0.99484732    -8138.2721    
    281300   295.65412     -291.63318      30070.215      0.99484732    -8206.7593    
    281400   302.86529     -133.25045      30070.215      0.99484732    -8232.5188    
    281500   301.74004     -125.19826      30070.215      0.99484732    -8250.8258    
    281600   294.01348     -397.91403      30070.215      0.99484732    -8283.8019    
    281700   293.36769     -49.976143      30070.215      0.99484732    -8324.1958    
    281800   290.19312     -215.58581      30070.215      0.99484732    -8392.7293    
    281900   289.35775     -312.3161       30070.215      0.99484732    -8380.5907    
    282000   292.98933     -361.30979      30070.215      0.99484732    -8293.0394    
    282100   300.34399      74.423836      30070.215      0.99484732    -8254.8746    
    282200   298.04671     -107.16784      30070.215      0.99484732    -8205.8153    
    282300   305.21046     -20.316996      30070.215      0.99484732    -8156.3004    
    282400   300.59771      239.52167      30070.215      0.99484732    -8147.0444    
    282500   299.89393      394.03612      30070.215      0.99484732    -8182.2667    
    282600   295.10362      319.70688      30070.215      0.99484732    -8273.5548    
    282700   301.71994      202.50584      30070.215      0.99484732    -8280.987     
    282800   297.51395      364.33054      30070.215      0.99484732    -8272.4898    
    282900   304.76851      214.29348      30070.215      0.99484732    -8229.9821    
    283000   302.15206      821.14335      30070.215      0.99484732    -8191.4264    
    283100   291.8668      -201.42257      30070.215      0.99484732    -8239.3039    
    283200   293.62082     -681.0202       30070.215      0.99484732    -8295.6106    
    283300   297.26128      137.36314      30070.215      0.99484732    -8293.2376    
    283400   300.33932      367.7405       30070.215      0.99484732    -8266.2248    
    283500   305.69812     -395.0888       30070.215      0.99484732    -8179.4743    
    283600   301.73166     -262.07479      30070.215      0.99484732    -8191.6648    
    283700   297.52677      387.80251      30070.215      0.99484732    -8234.043     
    283800   288.17745      337.78071      30070.215      0.99484732    -8297.0019    
    283900   300.67547     -257.29055      30070.215      0.99484732    -8328.1313    
    284000   284.27612     -117.1873       30070.215      0.99484732    -8410.9956    
    284100   294.82322      274.8953       30070.215      0.99484732    -8367.5724    
    284200   291.45756      114.88889      30070.215      0.99484732    -8306.5088    
    284300   297.2037       747.4658       30070.215      0.99484732    -8255.9144    
    284400   303.78876     -191.72791      30070.215      0.99484732    -8230.8677    
    284500   302.1455       24.764305      30070.215      0.99484732    -8277.5584    
    284600   296.12306     -111.45873      30070.215      0.99484732    -8329.0182    
    284700   298.71998     -228.35651      30070.215      0.99484732    -8308.0804    
    284800   300.43567     -88.850991      30070.215      0.99484732    -8276.9688    
    284900   288.68507     -723.15024      30070.215      0.99484732    -8259.5265    
    285000   305.49771      58.168959      30070.215      0.99484732    -8229.7891    
    285100   305.53932     -896.48164      30070.215      0.99484732    -8248.8683    
    285200   296.79405     -464.63366      30070.215      0.99484732    -8323.0916    
    285300   298.93739     -26.399305      30070.215      0.99484732    -8315.1556    
    285400   302.29673     -90.711002      30070.215      0.99484732    -8239.1058    
    285500   308.53896      243.22967      30070.215      0.99484732    -8217.7925    
    285600   296.63387     -307.01924      30070.215      0.99484732    -8269.3093    
    285700   296.87946     -324.189        30070.215      0.99484732    -8264.7176    
    285800   304.17562      237.39794      30070.215      0.99484732    -8206.5174    
    285900   307.39336      115.04986      30070.215      0.99484732    -8189.8745    
    286000   290.43852     -160.88649      30070.215      0.99484732    -8222.4039    
    286100   297.25697     -158.3102       30070.215      0.99484732    -8221.9771    
    286200   300.47431      367.20418      30070.215      0.99484732    -8211.8885    
    286300   302.58362      53.343947      30070.215      0.99484732    -8204.291     
    286400   302.95159      282.23631      30070.215      0.99484732    -8223.8803    
    286500   294.14166      497.97529      30070.215      0.99484732    -8269.8897    
    286600   298.10504      365.16513      30070.215      0.99484732    -8259.8698    
    286700   301.85479      369.88398      30070.215      0.99484732    -8177.9358    
    286800   298.0877       409.61255      30070.215      0.99484732    -8149.6077    
    286900   302.33769     -177.73491      30070.215      0.99484732    -8175.7084    
    287000   296.03473      97.853977      30070.215      0.99484732    -8213.8025    
    287100   296.96624      910.52053      30070.215      0.99484732    -8220.3504    
    287200   293.00202     -295.66731      30070.215      0.99484732    -8204.3843    
    287300   292.20466      235.91299      30070.215      0.99484732    -8174.5605    
    287400   298.53483      159.33252      30070.215      0.99484732    -8175.2524    
    287500   294.22024      96.923698      30070.215      0.99484732    -8193.3797    
    287600   298.27958      299.14027      30070.215      0.99484732    -8182.3305    
    287700   296.43582      166.15009      30070.215      0.99484732    -8140.7692    
    287800   313.33316     -299.47688      30070.215      0.99484732    -8109.6379    
    287900   296.2499      -644.23369      30070.215      0.99484732    -8178.4977    
    288000   289.62746      47.901437      30070.215      0.99484732    -8222.5246    
    288100   298.54469     -54.583811      30070.215      0.99484732    -8214.7353    
    288200   304.22628      283.21395      30070.215      0.99484732    -8204.7661    
    288300   294.91249      115.55774      30070.215      0.99484732    -8255.3761    
    288400   296.82564     -314.45942      30070.215      0.99484732    -8310.7773    
    288500   293.44058     -285.1971       30070.215      0.99484732    -8305.3816    
    288600   304.11753      14.756771      30070.215      0.99484732    -8226.1414    
    288700   296.63401     -368.74351      30070.215      0.99484732    -8206.1181    
    288800   301.33757     -28.265932      30070.215      0.99484732    -8190.0616    
    288900   303.39368      289.99535      30070.215      0.99484732    -8169.9717    
    289000   300.2956       321.55182      30070.215      0.99484732    -8221.8207    
    289100   300.14326      29.10047       30070.215      0.99484732    -8298.5547    
    289200   300.09043      291.88754      30070.215      0.99484732    -8310.7917    
    289300   300.32335      904.40865      30070.215      0.99484732    -8310.7801    
    289400   297.24474      228.41778      30070.215      0.99484732    -8320.4523    
    289500   295.00425      232.21232      30070.215      0.99484732    -8311.8729    
    289600   301.74548     -221.06423      30070.215      0.99484732    -8232.524     
    289700   307.3777      -15.322918      30070.215      0.99484732    -8214.2191    
    289800   301.37373     -419.25782      30070.215      0.99484732    -8240.5077    
    289900   293.8622      -351.22648      30070.215      0.99484732    -8282.617     
    290000   284.77667     -783.64543      30070.215      0.99484732    -8321.9618    
    290100   303.00628     -61.031123      30070.215      0.99484732    -8232.2214    
    290200   296.27279     -335.60161      30070.215      0.99484732    -8207.4198    
    290300   304.30025     -307.27695      30070.215      0.99484732    -8194.5952    
    290400   301.32927     -341.66461      30070.215      0.99484732    -8195.7225    
    290500   299.93494     -508.86904      30070.215      0.99484732    -8246.2731    
    290600   293.90755     -119.7714       30070.215      0.99484732    -8298.739     
    290700   296.40144     -544.7572       30070.215      0.99484732    -8287.0714    
    290800   309.37749      152.27196      30070.215      0.99484732    -8197.3719    
    290900   299.17196     -1077.539       30070.215      0.99484732    -8201.6922    
    291000   301.67902     -576.10732      30070.215      0.99484732    -8189.9693    
    291100   303.20416      406.8282       30070.215      0.99484732    -8166.8428    
    291200   297.67959     -87.189695      30070.215      0.99484732    -8245.2708    
    291300   303.20811     -547.4685       30070.215      0.99484732    -8296.9724    
    291400   292.89915      95.391984      30070.215      0.99484732    -8311.5161    
    291500   292.52301      540.11702      30070.215      0.99484732    -8282.9573    
    291600   307.87043      479.2003       30070.215      0.99484732    -8204.4835    
    291700   304.78962      47.126951      30070.215      0.99484732    -8214.304     
    291800   302.66674      8.6382192      30070.215      0.99484732    -8236.7675    
    291900   296.76955      287.09916      30070.215      0.99484732    -8253.2414    
    292000   301.4605       752.32776      30070.215      0.99484732    -8213.0979    
    292100   304.68834      642.99496      30070.215      0.99484732    -8140.0117    
    292200   303.80941      379.07681      30070.215      0.99484732    -8143.94      
    292300   300.47429     -369.44543      30070.215      0.99484732    -8210.4592    
    292400   303.41781     -451.93562      30070.215      0.99484732    -8246.5285    
    292500   298.2502       180.81616      30070.215      0.99484732    -8251.331     
    292600   308.82513      92.004055      30070.215      0.99484732    -8258.8041    
    292700   294.84813     -681.59484      30070.215      0.99484732    -8314.2241    
    292800   296.40425     -336.38161      30070.215      0.99484732    -8313.6539    
    292900   304.42456      674.38752      30070.215      0.99484732    -8221.3213    
    293000   306.07706      429.50491      30070.215      0.99484732    -8217.3814    
    293100   304.10948      22.4356        30070.215      0.99484732    -8258.9203    
    293200   293.55133      136.62661      30070.215      0.99484732    -8313.8339    
    293300   300.32603      119.88321      30070.215      0.99484732    -8282.8559    
    293400   304.04496     -160.25194      30070.215      0.99484732    -8248.7548    
    293500   293.1064      -293.3731       30070.215      0.99484732    -8250.0345    
    293600   301.19681      140.26281      30070.215      0.99484732    -8233.7359    
    293700   310.46405      258.47247      30070.215      0.99484732    -8200.1047    
    293800   292.45662     -20.267404      30070.215      0.99484732    -8261.2767    
    293900   302.14888     -345.36223      30070.215      0.99484732    -8293.1029    
    294000   301.79206      588.93292      30070.215      0.99484732    -8282.1348    
    294100   300.94168     -58.824812      30070.215      0.99484732    -8257.3881    
    294200   305.86585      864.00127      30070.215      0.99484732    -8154.1221    
    294300   304.67807      248.56668      30070.215      0.99484732    -8170.2189    
    294400   294.91157     -440.14909      30070.215      0.99484732    -8214.2267    
    294500   294.87019      181.81018      30070.215      0.99484732    -8208.6891    
    294600   310.92703      152.46785      30070.215      0.99484732    -8159.9555    
    294700   314.70426      607.71089      30070.215      0.99484732    -8124.4499    
    294800   298.03767     -726.31579      30070.215      0.99484732    -8219.0649    
    294900   302.91399      241.73848      30070.215      0.99484732    -8242.2148    
    295000   304.4135      -513.2741       30070.215      0.99484732    -8257.0736    
    295100   290.13874      435.57328      30070.215      0.99484732    -8309.7804    
    295200   291.50999     -39.265745      30070.215      0.99484732    -8333.4868    
    295300   301.50133      97.409432      30070.215      0.99484732    -8283.6333    
    295400   299.74633      546.90266      30070.215      0.99484732    -8202.2333    
    295500   306.87717      446.17267      30070.215      0.99484732    -8188.6119    
    295600   300.27025      568.54935      30070.215      0.99484732    -8221.6859    
    295700   298.19941      196.9069       30070.215      0.99484732    -8246.5985    
    295800   294.23637     -525.62746      30070.215      0.99484732    -8292.8454    
    295900   302.55619     -641.09254      30070.215      0.99484732    -8329.7197    
    296000   290.63539      489.66057      30070.215      0.99484732    -8327.343     
    296100   302.50785     -248.89456      30070.215      0.99484732    -8254.0355    
    296200   310.65498      114.80516      30070.215      0.99484732    -8222.9932    
    296300   305.63723     -778.32495      30070.215      0.99484732    -8250.1636    
    296400   297.56836      434.62193      30070.215      0.99484732    -8266.7806    
    296500   301.07867      5.7870867      30070.215      0.99484732    -8265.0566    
    296600   304.05988     -395.752        30070.215      0.99484732    -8276.8327    
    296700   295.29597     -282.80016      30070.215      0.99484732    -8306.3083    
    296800   298.61229      401.44326      30070.215      0.99484732    -8291.6611    
    296900   304.64584     -301.85124      30070.215      0.99484732    -8262.9898    
    297000   301.91011      54.12872       30070.215      0.99484732    -8286.7899    
    297100   294.40107     -252.83931      30070.215      0.99484732    -8349.8583    
    297200   295.6261       108.6366       30070.215      0.99484732    -8343.0297    
    297300   296.71067     -229.89552      30070.215      0.99484732    -8287.4314    
    297400   301.55113      359.6007       30070.215      0.99484732    -8251.427     
    297500   307.1488       617.86589      30070.215      0.99484732    -8266.7968    
    297600   293.76078     -117.49056      30070.215      0.99484732    -8308.0923    
    297700   291.35346     -150.22955      30070.215      0.99484732    -8310.233     
    297800   306.84723      386.4551       30070.215      0.99484732    -8243.4175    
    297900   303.95535     -387.21495      30070.215      0.99484732    -8214.444     
    298000   296.3159       8.5197502      30070.215      0.99484732    -8242.4183    
    298100   293.00122     -257.9853       30070.215      0.99484732    -8329.662     
    298200   295.26368      34.989488      30070.215      0.99484732    -8343.606     
    298300   295.21867      507.57522      30070.215      0.99484732    -8306.0844    
    298400   304.95089     -109.25352      30070.215      0.99484732    -8251.0442    
    298500   305.40352     -266.58815      30070.215      0.99484732    -8247.306     
    298600   309.10721     -524.12619      30070.215      0.99484732    -8263.0824    
    298700   292.33969     -200.63981      30070.215      0.99484732    -8316.768     
    298800   296.35101     -471.16         30070.215      0.99484732    -8329.9843    
    298900   299.75289      203.31428      30070.215      0.99484732    -8262.7663    
    299000   303.9238       63.477396      30070.215      0.99484732    -8236.6333    
    299100   300.57284     -210.94578      30070.215      0.99484732    -8254.248     
    299200   295.32535      353.46998      30070.215      0.99484732    -8245.3607    
    299300   308.21411      163.96275      30070.215      0.99484732    -8193.5137    
    299400   305.50515     -157.8241       30070.215      0.99484732    -8154.6377    
    299500   312.04439     -2.9902888      30070.215      0.99484732    -8118.2541    
    299600   294.4007      -516.66235      30070.215      0.99484732    -8215.5163    
    299700   301.40661      655.85202      30070.215      0.99484732    -8251.9531    
    299800   291.27648      435.14949      30070.215      0.99484732    -8284.8206    
    299900   296.1095      -694.06452      30070.215      0.99484732    -8281.8751    
    300000   307.68023      34.36823       30070.215      0.99484732    -8208.9463    
    300100   300.33588     -112.88907      30070.215      0.99484732    -8179.604     
    300200   299.99338     -177.5646       30070.215      0.99484732    -8158.6588    
    300300   304.39067     -27.575023      30070.215      0.99484732    -8110.7314    
    300400   309.75742      265.62039      30070.215      0.99484732    -8017.8876    
    300500   311.90136     -424.54486      30070.215      0.99484732    -8063.6373    
    300600   301.26639      586.98575      30070.215      0.99484732    -8136.852     
    300700   303.5807       165.96492      30070.215      0.99484732    -8195.754     
    300800   308.44519     -55.75735       30070.215      0.99484732    -8241.4504    
    300900   296.35047     -203.06569      30070.215      0.99484732    -8265.6506    
    301000   299.93101     -1000.7109      30070.215      0.99484732    -8260.1068    
    301100   300.40308     -211.99302      30070.215      0.99484732    -8266.2744    
    301200   298.50046      234.17094      30070.215      0.99484732    -8298.3468    
    301300   295.28577     -190.85927      30070.215      0.99484732    -8329.9529    
    301400   291.54022     -265.78149      30070.215      0.99484732    -8345.744     
    301500   298.16712     -301.56545      30070.215      0.99484732    -8292.756     
    301600   305.17703     -159.71713      30070.215      0.99484732    -8220.1331    
    301700   300.24602      111.16         30070.215      0.99484732    -8203.9972    
    301800   306.04676      331.81221      30070.215      0.99484732    -8217.481     
    301900   292.84221      180.91136      30070.215      0.99484732    -8292.577     
    302000   297.38534      110.08454      30070.215      0.99484732    -8316.3624    
    302100   294.53113      665.17934      30070.215      0.99484732    -8318.5677    
    302200   298.56706      432.86281      30070.215      0.99484732    -8326.0224    
    302300   294.65727      135.73196      30070.215      0.99484732    -8339.2556    
    302400   302.23678      89.816188      30070.215      0.99484732    -8257.8754    
    302500   302.84345      241.28308      30070.215      0.99484732    -8203.986     
    302600   297.19295      413.141        30070.215      0.99484732    -8220.8824    
    302700   301.40189      283.69323      30070.215      0.99484732    -8278.4707    
    302800   295.96683     -911.49219      30070.215      0.99484732    -8320.721     
    302900   302.9546       147.37877      30070.215      0.99484732    -8305.9312    
    303000   299.35338      157.09415      30070.215      0.99484732    -8292.0169    
    303100   294.5511       319.27768      30070.215      0.99484732    -8250.9717    
    303200   297.43668      125.1637       30070.215      0.99484732    -8217.9076    
    303300   297.74997      233.36605      30070.215      0.99484732    -8233.3462    
    303400   305.30696     -317.49654      30070.215      0.99484732    -8277.1476    
    303500   299.18767     -569.36727      30070.215      0.99484732    -8321.9338    
    303600   293.97607     -346.68514      30070.215      0.99484732    -8324.8035    
    303700   293.93753      146.4112       30070.215      0.99484732    -8293.5788    
    303800   301.65581     -253.92744      30070.215      0.99484732    -8251.8302    
    303900   306.77032     -393.02894      30070.215      0.99484732    -8255.4053    
    304000   290.40523      424.89374      30070.215      0.99484732    -8267.5813    
    304100   299.19277      437.44747      30070.215      0.99484732    -8248.7668    
    304200   299.83702      441.76081      30070.215      0.99484732    -8235.006     
    304300   295.34668      261.1922       30070.215      0.99484732    -8265.2662    
    304400   291.47572     -549.44142      30070.215      0.99484732    -8290.801     
    304500   302.75863     -175.16284      30070.215      0.99484732    -8218.159     
    304600   303.25377      229.5125       30070.215      0.99484732    -8179.4612    
    304700   303.70406      243.40558      30070.215      0.99484732    -8199.8689    
    304800   296.9829      -196.66604      30070.215      0.99484732    -8242.5747    
    304900   295.52143     -332.5357       30070.215      0.99484732    -8265.7528    
    305000   297.66629      224.94885      30070.215      0.99484732    -8226.0428    
    305100   306.56433      280.45813      30070.215      0.99484732    -8157.6577    
    305200   299.48035     -196.1864       30070.215      0.99484732    -8155.1457    
    305300   288.82264      496.89662      30070.215      0.99484732    -8172.9926    
    305400   297.35466     -4.3093498      30070.215      0.99484732    -8197.6245    
    305500   297.59079     -515.77615      30070.215      0.99484732    -8240.0381    
    305600   294.54214     -549.52668      30070.215      0.99484732    -8289.6938    
    305700   304.66918      374.58615      30070.215      0.99484732    -8287.8922    
    305800   308.19844     -196.54956      30070.215      0.99484732    -8222.0402    
    305900   305.48655      685.18001      30070.215      0.99484732    -8172.4908    
    306000   307.26501      561.50143      30070.215      0.99484732    -8177.9253    
    306100   302.67886     -493.06888      30070.215      0.99484732    -8273.4117    
    306200   302.41143     -659.76238      30070.215      0.99484732    -8290.7608    
    306300   299.93581      15.274102      30070.215      0.99484732    -8291.9542    
    306400   307.42027      327.79589      30070.215      0.99484732    -8250.1794    
    306500   302.31803      355.46064      30070.215      0.99484732    -8219.9701    
    306600   298.85815     -190.49383      30070.215      0.99484732    -8259.5368    
    306700   293.08155      222.40876      30070.215      0.99484732    -8323.4272    
    306800   296.98698     -440.24442      30070.215      0.99484732    -8338.985     
    306900   301.29632      39.609826      30070.215      0.99484732    -8281.6491    
    307000   299.96766      95.793888      30070.215      0.99484732    -8216.6055    
    307100   309.56776     -510.59009      30070.215      0.99484732    -8213.8942    
    307200   298.51867     -548.67354      30070.215      0.99484732    -8248.997     
    307300   290.87484     -535.31682      30070.215      0.99484732    -8324.9133    
    307400   288.96643     -239.62708      30070.215      0.99484732    -8365.8089    
    307500   292.61185     -144.89983      30070.215      0.99484732    -8309.3899    
    307600   298.45674      8.6484585      30070.215      0.99484732    -8251.3976    
    307700   292.2784      -132.80228      30070.215      0.99484732    -8225.0571    
    307800   303.75321      623.80976      30070.215      0.99484732    -8209.4748    
    307900   298.22453     -487.81375      30070.215      0.99484732    -8260.9647    
    308000   298.37555      1.0304313      30070.215      0.99484732    -8317.2452    
    308100   292.09299     -775.04933      30070.215      0.99484732    -8354.5208    
    308200   293.70126      171.95214      30070.215      0.99484732    -8312.9039    
    308300   310.60409     -197.22778      30070.215      0.99484732    -8250.3792    
    308400   302.22369     -169.6867       30070.215      0.99484732    -8257.313     
    308500   290.65007     -479.45065      30070.215      0.99484732    -8285.4282    
    308600   306.8368      -197.63211      30070.215      0.99484732    -8221.3431    
    308700   301.68743      667.54372      30070.215      0.99484732    -8169.8074    
    308800   306.46354      174.11042      30070.215      0.99484732    -8205.6787    
    308900   304.32565     -180.18473      30070.215      0.99484732    -8255.6299    
    309000   300.04928     -494.86374      30070.215      0.99484732    -8279.5593    
    309100   296.31626     -442.7342       30070.215      0.99484732    -8276.5865    
    309200   305.7466      -335.57344      30070.215      0.99484732    -8206.3616    
    309300   315.80337     -401.56967      30070.215      0.99484732    -8159.4511    
    309400   305.80276      121.01107      30070.215      0.99484732    -8200.1113    
    309500   303.53576     -330.75545      30070.215      0.99484732    -8254.7755    
    309600   294.24621      294.70655      30070.215      0.99484732    -8270.0701    
    309700   296.9255       283.12747      30070.215      0.99484732    -8216.1386    
    309800   307.19857      474.79551      30070.215      0.99484732    -8176.8893    
    309900   298.28665      569.49943      30070.215      0.99484732    -8184.1066    
    310000   301.16177     -216.85532      30070.215      0.99484732    -8170.2232    
    310100   308.58639     -329.05963      30070.215      0.99484732    -8146.1165    
    310200   301.13843     -546.05787      30070.215      0.99484732    -8190.316     
    310300   293.44283     -685.98166      30070.215      0.99484732    -8252.9958    
    310400   303.59734     -653.45586      30070.215      0.99484732    -8262.22      
    310500   297.36146     -236.18885      30070.215      0.99484732    -8265.4186    
    310600   297.83308     -305.29193      30070.215      0.99484732    -8225.3873    
    310700   303.23417     -475.88288      30070.215      0.99484732    -8149.0381    
    310800   300.82421      335.39894      30070.215      0.99484732    -8136.3271    
    310900   300.61184      214.41003      30070.215      0.99484732    -8172.3679    
    311000   295.54001     -586.57072      30070.215      0.99484732    -8241.2954    
    311100   292.6288      -14.759837      30070.215      0.99484732    -8245.6864    
    311200   297.99557     -298.76967      30070.215      0.99484732    -8229.3098    
    311300   298.30415      48.402855      30070.215      0.99484732    -8232.5918    
    311400   292.90346     -49.505452      30070.215      0.99484732    -8231.3409    
    311500   305.18848     -42.863986      30070.215      0.99484732    -8186.261     
    311600   311.5516      -38.347482      30070.215      0.99484732    -8127.9418    
    311700   299.51693     -145.49025      30070.215      0.99484732    -8143.4176    
    311800   297.76794     -503.09418      30070.215      0.99484732    -8209.9855    
    311900   299.48326     -343.82584      30070.215      0.99484732    -8250.2501    
    312000   297.01721     -299.99237      30070.215      0.99484732    -8246.2529    
    312100   306.3255      -432.78114      30070.215      0.99484732    -8226.4283    
    312200   293.92634     -699.56709      30070.215      0.99484732    -8234.7031    
    312300   302.27216      357.33032      30070.215      0.99484732    -8245.7731    
    312400   293.61893     -936.0582       30070.215      0.99484732    -8323.2096    
    312500   295.29572     -772.03325      30070.215      0.99484732    -8337.2627    
    312600   296.91761     -907.03228      30070.215      0.99484732    -8266.3564    
    312700   302.81267     -304.11279      30070.215      0.99484732    -8224.9081    
    312800   297.04952     -437.22074      30070.215      0.99484732    -8203.3494    
    312900   300.2114       162.56998      30070.215      0.99484732    -8168.3166    
    313000   306.93548     -296.07714      30070.215      0.99484732    -8128.0537    
    313100   304.0794      -227.0313       30070.215      0.99484732    -8157.9218    
    313200   296.47669     -400.72423      30070.215      0.99484732    -8243.8861    
    313300   296.63176     -336.88948      30070.215      0.99484732    -8244.3767    
    313400   301.69794     -120.32327      30070.215      0.99484732    -8202.6858    
    313500   299.69878     -279.73915      30070.215      0.99484732    -8193.0853    
    313600   291.10467      208.91435      30070.215      0.99484732    -8257.4126    
    313700   296.55658     -669.56083      30070.215      0.99484732    -8302.3291    
    313800   299.05364     -35.885502      30070.215      0.99484732    -8306.2687    
    313900   296.39984     -26.594086      30070.215      0.99484732    -8257.5652    
    314000   304.82668      100.05294      30070.215      0.99484732    -8178.5205    
    314100   303.87165      246.23217      30070.215      0.99484732    -8184.9161    
    314200   298.42287      625.35299      30070.215      0.99484732    -8231.091     
    314300   302.46966      53.009739      30070.215      0.99484732    -8290.0243    
    314400   298.03892      1.6814263      30070.215      0.99484732    -8313.8676    
    314500   302.00796     -35.781307      30070.215      0.99484732    -8310.3713    
    314600   295.8002      -236.1151       30070.215      0.99484732    -8314.6341    
    314700   303.93234     -161.00702      30070.215      0.99484732    -8249.156     
    314800   306.9237       517.63609      30070.215      0.99484732    -8188.925     
    314900   298.86674      309.89388      30070.215      0.99484732    -8210.7103    
    315000   301.44791     -54.000668      30070.215      0.99484732    -8237.0264    
    315100   290.70765      654.43792      30070.215      0.99484732    -8277.6257    
    315200   291.47473      274.59187      30070.215      0.99484732    -8352.685     
    315300   294.69643     -487.03281      30070.215      0.99484732    -8352.5331    
    315400   299.9268      -448.19532      30070.215      0.99484732    -8281.8622    
    315500   293.65206      242.97887      30070.215      0.99484732    -8264.9883    
    315600   301.91409      480.73621      30070.215      0.99484732    -8271.0621    
    315700   297.85732      503.7855       30070.215      0.99484732    -8323.6935    
    315800   291.54021     -47.265875      30070.215      0.99484732    -8374.3794    
    315900   297.45515     -324.3527       30070.215      0.99484732    -8352.4322    
    316000   296.69219     -65.371649      30070.215      0.99484732    -8317.7387    
    316100   301.31978      695.87651      30070.215      0.99484732    -8300.0271    
    316200   299.78514     -263.21497      30070.215      0.99484732    -8319.633     
    316300   306.99199     -331.75836      30070.215      0.99484732    -8324.1247    
    316400   293.81466     -455.93068      30070.215      0.99484732    -8328.2241    
    316500   290.61629      0.42933753     30070.215      0.99484732    -8294.9783    
    316600   299.37913     -213.98667      30070.215      0.99484732    -8222.7528    
    316700   302.1154       58.198059      30070.215      0.99484732    -8186.1406    
    316800   299.99554     -38.07021       30070.215      0.99484732    -8179.2312    
    316900   293.16233      436.27366      30070.215      0.99484732    -8243.9243    
    317000   299.93847     -269.44087      30070.215      0.99484732    -8298.2082    
    317100   300.42198      140.29508      30070.215      0.99484732    -8310.111     
    317200   298.33281     -229.70537      30070.215      0.99484732    -8319.0476    
    317300   304.22991     -417.04359      30070.215      0.99484732    -8304.0673    
    317400   308.68647      409.91261      30070.215      0.99484732    -8208.4668    
    317500   302.32241      397.49462      30070.215      0.99484732    -8206.3487    
    317600   303.88387     -278.7434       30070.215      0.99484732    -8255.1813    
    317700   296.60396     -307.4426       30070.215      0.99484732    -8285.4764    
    317800   298.29117     -578.40405      30070.215      0.99484732    -8266.2418    
    317900   301.86324     -22.163792      30070.215      0.99484732    -8231.344     
    318000   308.17238      888.27287      30070.215      0.99484732    -8134.9319    
    318100   305.67461     -57.755122      30070.215      0.99484732    -8151.2891    
    318200   300.12576     -335.1759       30070.215      0.99484732    -8209.7396    
    318300   300.32583     -18.611636      30070.215      0.99484732    -8222.9978    
    318400   300.55848     -151.74643      30070.215      0.99484732    -8244.383     
    318500   306.75568     -167.44313      30070.215      0.99484732    -8249.6775    
    318600   294.75786      110.52536      30070.215      0.99484732    -8286.324     
    318700   293.75846      60.141308      30070.215      0.99484732    -8317.2523    
    318800   301.19262      495.90197      30070.215      0.99484732    -8306.6596    
    318900   295.73364      172.24885      30070.215      0.99484732    -8346.9847    
    319000   300.1699      -537.32155      30070.215      0.99484732    -8352.0479    
    319100   303.48297      22.277119      30070.215      0.99484732    -8278.5177    
    319200   302.2971       285.30818      30070.215      0.99484732    -8250.9714    
    319300   295.14421      175.57864      30070.215      0.99484732    -8278.7597    
    319400   300.97744     -394.45738      30070.215      0.99484732    -8297.7154    
    319500   288.08957     -463.64895      30070.215      0.99484732    -8364.1927    
    319600   296.16918      9.5349765      30070.215      0.99484732    -8400.2521    
    319700   301.51468      138.74285      30070.215      0.99484732    -8386.6872    
    319800   296.43947      537.56604      30070.215      0.99484732    -8347.994     
    319900   302.36972     -146.69397      30070.215      0.99484732    -8280.8836    
    320000   304.32148     -391.90345      30070.215      0.99484732    -8250.5878    
    320100   306.04532     -378.53194      30070.215      0.99484732    -8258.9322    
    320200   297.43986     -629.06559      30070.215      0.99484732    -8269.7694    
    320300   290.50203      386.76258      30070.215      0.99484732    -8258.4351    
    320400   300.73904     -264.26516      30070.215      0.99484732    -8228.8988    
    320500   296.71771      786.6924       30070.215      0.99484732    -8212.3053    
    320600   303.16419      492.92739      30070.215      0.99484732    -8223.3876    
    320700   297.18655      158.84359      30070.215      0.99484732    -8319.0053    
    320800   295.26452      864.52443      30070.215      0.99484732    -8328.7552    
    320900   300.10997      147.26662      30070.215      0.99484732    -8290.4274    
    321000   301.19389     -103.40293      30070.215      0.99484732    -8233.5328    
    321100   299.30316      542.39088      30070.215      0.99484732    -8205.4305    
    321200   299.82473     -322.11943      30070.215      0.99484732    -8212.5587    
    321300   304.93001     -96.9367        30070.215      0.99484732    -8224.2772    
    321400   298.63786     -299.42316      30070.215      0.99484732    -8263.6557    
    321500   286.04509     -951.95585      30070.215      0.99484732    -8358.809     
    321600   291.94125     -231.8994       30070.215      0.99484732    -8321.2162    
    321700   302.25077     -260.16465      30070.215      0.99484732    -8259.5087    
    321800   295.36541     -475.71815      30070.215      0.99484732    -8219.854     
    321900   296.28598      144.11555      30070.215      0.99484732    -8173.184     
    322000   309.74663      639.63066      30070.215      0.99484732    -8159.7782    
    322100   295.53621      495.85092      30070.215      0.99484732    -8222.3789    
    322200   301.49584      143.58499      30070.215      0.99484732    -8238.6499    
    322300   303.20238     -214.95737      30070.215      0.99484732    -8240.7164    
    322400   303.35534     -338.30931      30070.215      0.99484732    -8227.612     
    322500   306.00485      191.79535      30070.215      0.99484732    -8185.2695    
    322600   303.30361     -95.41942       30070.215      0.99484732    -8182.2339    
    322700   295.90043     -319.37502      30070.215      0.99484732    -8255.5228    
    322800   301.5584       107.96573      30070.215      0.99484732    -8298.2553    
    322900   294.86202     -25.688365      30070.215      0.99484732    -8308.747     
    323000   298.75777      205.38746      30070.215      0.99484732    -8264.61      
    323100   311.87468      509.15566      30070.215      0.99484732    -8187.9669    
    323200   304.86902      505.92852      30070.215      0.99484732    -8198.5074    
    323300   300.22994     -199.34732      30070.215      0.99484732    -8219.2616    
    323400   297.40953      35.71208       30070.215      0.99484732    -8225.1346    
    323500   307.93034     -398.67031      30070.215      0.99484732    -8216.9181    
    323600   296.55332     -44.53938       30070.215      0.99484732    -8273.1339    
    323700   297.84555     -318.14717      30070.215      0.99484732    -8336.8518    
    323800   290.92608      122.34071      30070.215      0.99484732    -8325.9022    
    323900   309.07327     -467.59022      30070.215      0.99484732    -8265.9679    
    324000   298.45994     -284.74668      30070.215      0.99484732    -8259.0416    
    324100   304.177        876.51552      30070.215      0.99484732    -8248.6608    
    324200   307.82218      83.363556      30070.215      0.99484732    -8288.5411    
    324300   297.71854      73.800406      30070.215      0.99484732    -8354.8601    
    324400   294.20437      411.34269      30070.215      0.99484732    -8364.4089    
    324500   299.44185      139.96873      30070.215      0.99484732    -8321.0346    
    324600   300.14976      222.01766      30070.215      0.99484732    -8292.0571    
    324700   303.76177      391.69498      30070.215      0.99484732    -8309.1964    
    324800   302.57276     -154.148        30070.215      0.99484732    -8325.343     
    324900   296.74681     -17.187584      30070.215      0.99484732    -8334.6242    
    325000   301.48605     -34.738834      30070.215      0.99484732    -8300.7635    
    325100   306.24787      103.99398      30070.215      0.99484732    -8243.0618    
    325200   298.59921     -636.53392      30070.215      0.99484732    -8261.203     
    325300   304.42134     -579.05986      30070.215      0.99484732    -8242.7418    
    325400   312.04123      358.41636      30070.215      0.99484732    -8230.4803    
    325500   298.24662      461.39461      30070.215      0.99484732    -8304.9513    
    325600   292.88332     -14.848437      30070.215      0.99484732    -8346.4193    
    325700   300.01724      208.16844      30070.215      0.99484732    -8353.0085    
    325800   292.02247      63.061534      30070.215      0.99484732    -8330.9618    
    325900   304.24058      460.88309      30070.215      0.99484732    -8235.5008    
    326000   297.55241     -507.04225      30070.215      0.99484732    -8232.4486    
    326100   297.60082     -8.2419226      30070.215      0.99484732    -8248.7501    
    326200   290.91715     -327.45171      30070.215      0.99484732    -8284.5116    
    326300   298.63114     -73.242617      30070.215      0.99484732    -8308.3097    
    326400   295.40853     -217.36511      30070.215      0.99484732    -8344.011     
    326500   287.45715     -348.94202      30070.215      0.99484732    -8356.1177    
    326600   300.1285       333.50699      30070.215      0.99484732    -8262.4633    
    326700   301.8504       341.59104      30070.215      0.99484732    -8234.2325    
    326800   303.37136     -233.41325      30070.215      0.99484732    -8224.0685    
    326900   302.4241       43.809583      30070.215      0.99484732    -8211.3317    
    327000   294.91128     -199.69854      30070.215      0.99484732    -8223.6293    
    327100   291.90138     -146.21849      30070.215      0.99484732    -8261.4175    
    327200   299.19748     -97.448251      30070.215      0.99484732    -8240.5194    
    327300   300.25797      263.8111       30070.215      0.99484732    -8183.7186    
    327400   307.46095     -125.53888      30070.215      0.99484732    -8135.5228    
    327500   303.87359     -171.21128      30070.215      0.99484732    -8088.0573    
    327600   309.57644      389.07747      30070.215      0.99484732    -8006.1721    
    327700   306.97686      453.18455      30070.215      0.99484732    -8071.3891    
    327800   305.70702     -54.226249      30070.215      0.99484732    -8142.88      
    327900   301.34618      569.08208      30070.215      0.99484732    -8204.0636    
    328000   303.89444     -696.02551      30070.215      0.99484732    -8261.4503    
    328100   284.72131     -38.448303      30070.215      0.99484732    -8280.1982    
    328200   301.41758      81.09244       30070.215      0.99484732    -8221.7031    
    328300   304.35964      119.17117      30070.215      0.99484732    -8188.4783    
    328400   297.52941     -274.01111      30070.215      0.99484732    -8217.9803    
    328500   305.62315      195.72506      30070.215      0.99484732    -8243.2903    
    328600   299.72773     -126.80085      30070.215      0.99484732    -8282.685     
    328700   291.02766     -517.87397      30070.215      0.99484732    -8274.4525    
    328800   303.59602      232.07156      30070.215      0.99484732    -8234.5925    
    328900   300.8478      -207.52023      30070.215      0.99484732    -8232.7544    
    329000   291.76212     -375.60928      30070.215      0.99484732    -8288.4872    
    329100   296.88116     -649.9208       30070.215      0.99484732    -8344.7748    
    329200   291.01074      438.41295      30070.215      0.99484732    -8313.6811    
    329300   307.37282     -118.60797      30070.215      0.99484732    -8255.1239    
    329400   305.84865     -60.694861      30070.215      0.99484732    -8261.7023    
    329500   300.06945      735.00671      30070.215      0.99484732    -8310.8413    
    329600   295.55743      228.91685      30070.215      0.99484732    -8342.9492    
    329700   304.05523      59.885216      30070.215      0.99484732    -8327.5594    
    329800   294.80676      134.94147      30070.215      0.99484732    -8336.9709    
    329900   290.65005     -255.06038      30070.215      0.99484732    -8359.0895    
    330000   295.76473      353.82927      30070.215      0.99484732    -8280.6572    
    330100   301.63664      321.87061      30070.215      0.99484732    -8231.6316    
    330200   301.14838      88.881373      30070.215      0.99484732    -8192.6647    
    330300   299.49904      489.89511      30070.215      0.99484732    -8154.721     
    330400   303.75582      12.087225      30070.215      0.99484732    -8173.4105    
    330500   286.9583       245.1264       30070.215      0.99484732    -8264.8194    
    330600   298.4599       2.3512384      30070.215      0.99484732    -8255.9576    
    330700   300.4153       91.578232      30070.215      0.99484732    -8218.7229    
    330800   309.50976      53.784555      30070.215      0.99484732    -8201.015     
    330900   288.88994     -70.334853      30070.215      0.99484732    -8289.0972    
    331000   285.81644     -159.14796      30070.215      0.99484732    -8293.2528    
    331100   301.66122     -121.98099      30070.215      0.99484732    -8251.5718    
    331200   292.84393      111.06188      30070.215      0.99484732    -8248.9568    
    331300   302.55517     -349.95763      30070.215      0.99484732    -8258.4245    
    331400   299.17126     -537.493        30070.215      0.99484732    -8254.0572    
    331500   314.70969      168.52916      30070.215      0.99484732    -8207.0176    
    331600   298.68853      70.654875      30070.215      0.99484732    -8221.6371    
    331700   299.46141     -651.79341      30070.215      0.99484732    -8278.581     
    331800   297.21172      74.475113      30070.215      0.99484732    -8288.9613    
    331900   305.65933      532.37798      30070.215      0.99484732    -8249.0911    
    332000   304.36058     -16.409234      30070.215      0.99484732    -8196.8697    
    332100   309.46598      400.2027       30070.215      0.99484732    -8214.2804    
    332200   292.10354     -5.9969502      30070.215      0.99484732    -8272.994     
    332300   301.37571      800.57051      30070.215      0.99484732    -8254.3141    
    332400   302.65897      262.29969      30070.215      0.99484732    -8255.7664    
    332500   292.72077      363.53016      30070.215      0.99484732    -8318.3665    
    332600   298.92617      327.24692      30070.215      0.99484732    -8348.3675    
    332700   297.37226     -39.698646      30070.215      0.99484732    -8339.2302    
    332800   302.76206     -511.41548      30070.215      0.99484732    -8289.2029    
    332900   302.28822      34.609699      30070.215      0.99484732    -8233.5733    
    333000   300.99745      75.158839      30070.215      0.99484732    -8236.049     
    333100   293.79143     -669.80872      30070.215      0.99484732    -8290.618     
    333200   301.89166     -88.178224      30070.215      0.99484732    -8288.5748    
    333300   311.26294      160.16278      30070.215      0.99484732    -8283.1941    
    333400   301.73648     -319.62654      30070.215      0.99484732    -8324.2248    
    333500   294.5445      -372.42462      30070.215      0.99484732    -8391.0264    
    333600   285.11323     -387.52396      30070.215      0.99484732    -8444.8346    
    333700   292.71628     -110.27523      30070.215      0.99484732    -8373.9524    
    333800   290.57676      10.109929      30070.215      0.99484732    -8340.1243    
    333900   300.27179     -94.388814      30070.215      0.99484732    -8282.5165    
    334000   303.01035      32.172484      30070.215      0.99484732    -8233.422     
    334100   302.32803      145.74717      30070.215      0.99484732    -8199.412     
    334200   297.49853     -143.32728      30070.215      0.99484732    -8213.5805    
    334300   295.71495     -95.774576      30070.215      0.99484732    -8279.2487    
    334400   296.93493      140.8114       30070.215      0.99484732    -8349.3277    
    334500   292.89941     -103.52887      30070.215      0.99484732    -8358.7829    
    334600   295.4812       285.23391      30070.215      0.99484732    -8327.8366    
    334700   297.89751     -491.6199       30070.215      0.99484732    -8284.3973    
    334800   305.7981       58.942187      30070.215      0.99484732    -8275.9929    
    334900   308.81481      140.27306      30070.215      0.99484732    -8297.7287    
    335000   298.40144     -103.538        30070.215      0.99484732    -8324.5797    
    335100   300.12648      206.16945      30070.215      0.99484732    -8305.8012    
    335200   308.21103     -73.984329      30070.215      0.99484732    -8259.7482    
    335300   307.5729       215.6214       30070.215      0.99484732    -8154.186     
    335400   308.08668      395.22648      30070.215      0.99484732    -8152.8143    
    335500   297.72206     -584.39268      30070.215      0.99484732    -8231.2282    
    335600   296.94161     -424.57619      30070.215      0.99484732    -8249.6929    
    335700   290.17886      616.40533      30070.215      0.99484732    -8222.2099    
    335800   313.26308      265.90504      30070.215      0.99484732    -8181.6886    
    335900   296.91152      110.37713      30070.215      0.99484732    -8263.7217    
    336000   301.20498      109.67543      30070.215      0.99484732    -8289.4616    
    336100   297.11991     -19.473883      30070.215      0.99484732    -8305.8597    
    336200   299.0412       60.700408      30070.215      0.99484732    -8311.3813    
    336300   296.26324     -21.382015      30070.215      0.99484732    -8267.7428    
    336400   300.98204      188.84803      30070.215      0.99484732    -8188.5334    
    336500   303.04152     -206.75788      30070.215      0.99484732    -8188.3652    
    336600   304.08785      272.5132       30070.215      0.99484732    -8229.6527    
    336700   297.72348      78.222887      30070.215      0.99484732    -8259.5074    
    336800   298.00227      564.81612      30070.215      0.99484732    -8300.0272    
    336900   296.12839     -52.759733      30070.215      0.99484732    -8372.4157    
    337000   296.95876      428.48941      30070.215      0.99484732    -8349.347     
    337100   303.88354      222.54753      30070.215      0.99484732    -8288.13      
    337200   303.02038      462.43923      30070.215      0.99484732    -8277.1675    
    337300   302.0234       40.706088      30070.215      0.99484732    -8306.8172    
    337400   291.69352      399.01361      30070.215      0.99484732    -8396.2185    
    337500   293.52104      400.7475       30070.215      0.99484732    -8394.9026    
    337600   302.39357     -117.75341      30070.215      0.99484732    -8372.2597    
    337700   309.89819     -537.39293      30070.215      0.99484732    -8331.3286    
    337800   303.30499      41.973004      30070.215      0.99484732    -8336.7588    
    337900   286.91101     -196.73574      30070.215      0.99484732    -8414.3397    
    338000   292.22809     -297.82861      30070.215      0.99484732    -8404.7896    
    338100   304.50219     -346.5623       30070.215      0.99484732    -8340.4928    
    338200   292.57928     -76.423013      30070.215      0.99484732    -8313.5752    
    338300   306.9705       637.0512       30070.215      0.99484732    -8272.6499    
    338400   293.73285      667.84404      30070.215      0.99484732    -8252.9876    
    338500   311.24913      338.46273      30070.215      0.99484732    -8193.6206    
    338600   305.47428     -275.8708       30070.215      0.99484732    -8130.8721    
    338700   303.15949      420.52185      30070.215      0.99484732    -8146.8255    
    338800   291.40163     -190.22312      30070.215      0.99484732    -8233.0089    
    338900   296.10889     -765.61816      30070.215      0.99484732    -8251.4153    
    339000   294.68909      159.93812      30070.215      0.99484732    -8242.8254    
    339100   301.03684      127.07837      30070.215      0.99484732    -8223.0954    
    339200   304.57878     -180.11541      30070.215      0.99484732    -8177.8077    
    339300   310.24599     -4.8187238      30070.215      0.99484732    -8121.0928    
    339400   310.82356      437.91859      30070.215      0.99484732    -8087.4018    
    339500   299.90162     -196.90864      30070.215      0.99484732    -8177.1321    
    339600   295.96276      265.5499       30070.215      0.99484732    -8213.6484    
    339700   297.90657     -147.96936      30070.215      0.99484732    -8218.4073    
    339800   298.3245       224.01887      30070.215      0.99484732    -8232.4642    
    339900   296.21819      405.33117      30070.215      0.99484732    -8256.8468    
    340000   290.92246     -394.74855      30070.215      0.99484732    -8281.662     
    340100   304.55037     -204.62544      30070.215      0.99484732    -8214.8737    
    340200   304.39057      453.17733      30070.215      0.99484732    -8176.1618    
    340300   305.63586      49.926626      30070.215      0.99484732    -8187.7956    
    340400   290.06287     -226.6723       30070.215      0.99484732    -8240.5227    
    340500   298.70457     -160.51693      30070.215      0.99484732    -8248.8144    
    340600   307.98612      351.43207      30070.215      0.99484732    -8164.7238    
    340700   309.10353      21.790156      30070.215      0.99484732    -8143.2218    
    340800   297.91608      268.83252      30070.215      0.99484732    -8193.4019    
    340900   299.67654     -113.43208      30070.215      0.99484732    -8248.5273    
    341000   300.17195     -68.80933       30070.215      0.99484732    -8272.9324    
    341100   290.83333      161.40889      30070.215      0.99484732    -8269.041     
    341200   300.12513     -189.54974      30070.215      0.99484732    -8215.3049    
    341300   298.23575     -51.579489      30070.215      0.99484732    -8193.4484    
    341400   298.96034     -167.31856      30070.215      0.99484732    -8185.8357    
    341500   306.95607     -265.09618      30070.215      0.99484732    -8190.3145    
    341600   298.8179      -444.44123      30070.215      0.99484732    -8207.9543    
    341700   292.51884      264.79363      30070.215      0.99484732    -8233.3665    
    341800   294.23957      2.2963939      30070.215      0.99484732    -8227.824     
    341900   304.61849     -609.80809      30070.215      0.99484732    -8232.3266    
    342000   296.60365      71.93509       30070.215      0.99484732    -8314         
    342100   289.13271      174.64398      30070.215      0.99484732    -8322.35      
    342200   294.6651       18.641432      30070.215      0.99484732    -8255.7652    
    342300   294.90999      634.1287       30070.215      0.99484732    -8227.7439    
    342400   301.03253     -78.361272      30070.215      0.99484732    -8242.9767    
    342500   299.5726      -556.30731      30070.215      0.99484732    -8279.4834    
    342600   300.86406      205.74861      30070.215      0.99484732    -8301.412     
    342700   297.60387     -452.80974      30070.215      0.99484732    -8316.0971    
    342800   297.80275     -401.01662      30070.215      0.99484732    -8341.5389    
    342900   293.74323      17.952756      30070.215      0.99484732    -8312.6586    
    343000   300.09644      11.61582       30070.215      0.99484732    -8240.827     
    343100   307.66316     -220.67634      30070.215      0.99484732    -8194.1192    
    343200   301.85949     -135.77446      30070.215      0.99484732    -8179.0636    
    343300   303.80035     -1175.2764      30070.215      0.99484732    -8175.3692    
    343400   308.44575     -75.634411      30070.215      0.99484732    -8108.6584    
    343500   312.16029      793.75344      30070.215      0.99484732    -8079.0177    
    343600   303.2403      -630.12277      30070.215      0.99484732    -8150.3823    
    343700   304.25651      12.196353      30070.215      0.99484732    -8182.0889    
    343800   296.34361      12.133615      30070.215      0.99484732    -8227.5477    
    343900   299.91608     -107.85457      30070.215      0.99484732    -8275.0537    
    344000   296.22946     -654.33993      30070.215      0.99484732    -8281.9024    
    344100   297.16356      69.555109      30070.215      0.99484732    -8250.8064    
    344200   302.10355      514.41912      30070.215      0.99484732    -8220.521     
    344300   302.08231     -27.257905      30070.215      0.99484732    -8230.8698    
    344400   299.81396      6.5429082      30070.215      0.99484732    -8235.3421    
    344500   303.79649      402.87611      30070.215      0.99484732    -8209.5805    
    344600   298.7861       116.60871      30070.215      0.99484732    -8202.0175    
    344700   303.9428       100.80211      30070.215      0.99484732    -8203.1698    
    344800   300.89981      358.97365      30070.215      0.99484732    -8235.2968    
    344900   290.5524       429.52053      30070.215      0.99484732    -8299.9494    
    345000   297.68986     -111.60728      30070.215      0.99484732    -8336.0257    
    345100   296.79351     -298.24316      30070.215      0.99484732    -8350.7651    
    345200   297.75999      98.684609      30070.215      0.99484732    -8314.8269    
    345300   296.91447      318.49295      30070.215      0.99484732    -8230.8816    
    345400   303.46262     -366.03181      30070.215      0.99484732    -8204.4312    
    345500   297.04205     -72.611129      30070.215      0.99484732    -8207.8126    
    345600   305.83838     -125.63936      30070.215      0.99484732    -8268.6051    
    345700   294.65092      236.91396      30070.215      0.99484732    -8346.9224    
    345800   302.81047     -174.44486      30070.215      0.99484732    -8356.0083    
    345900   295.70535      453.07763      30070.215      0.99484732    -8364.5918    
    346000   296.57135      467.51769      30070.215      0.99484732    -8339.2739    
    346100   309.27468     -428.34715      30070.215      0.99484732    -8268.2568    
    346200   306.1481       41.754375      30070.215      0.99484732    -8255.3699    
    346300   307.19025      39.29307       30070.215      0.99484732    -8240.3302    
    346400   306.44504      372.52044      30070.215      0.99484732    -8226.9976    
    346500   299.72155     -224.47119      30070.215      0.99484732    -8264.3876    
    346600   297.39716     -4.2743143      30070.215      0.99484732    -8291.9032    
    346700   301.93374      263.6146       30070.215      0.99484732    -8329.0451    
    346800   285.92499     -293.01692      30070.215      0.99484732    -8392.8349    
    346900   296.40428     -488.96434      30070.215      0.99484732    -8357.9507    
    347000   293.18587     -511.50557      30070.215      0.99484732    -8311.152     
    347100   292.88719      226.17156      30070.215      0.99484732    -8269.3398    
    347200   301.50417     -2.0524157      30070.215      0.99484732    -8254.2381    
    347300   295.94908      550.34497      30070.215      0.99484732    -8270.9585    
    347400   303.58947      185.73413      30070.215      0.99484732    -8250.6634    
    347500   302.29873      120.10657      30070.215      0.99484732    -8230.0306    
    347600   292.37911     -739.80632      30070.215      0.99484732    -8219.4914    
    347700   302.13436     -254.10286      30070.215      0.99484732    -8173.369     
    347800   301.8414       550.53691      30070.215      0.99484732    -8148.7345    
    347900   302.31541      86.258106      30070.215      0.99484732    -8180.868     
    348000   298.59425      261.0376       30070.215      0.99484732    -8263.065     
    348100   295.23828      70.4006        30070.215      0.99484732    -8281.8073    
    348200   307.99467     -583.92466      30070.215      0.99484732    -8249.1446    
    348300   300.50093      557.56302      30070.215      0.99484732    -8203.6869    
    348400   304.79414     -108.10738      30070.215      0.99484732    -8157.4257    
    348500   307.04532      109.07914      30070.215      0.99484732    -8136.2243    
    348600   299.05222     -157.34568      30070.215      0.99484732    -8196.1666    
    348700   303.26616     -432.65903      30070.215      0.99484732    -8246.6854    
    348800   290.47293     -178.29264      30070.215      0.99484732    -8262.3253    
    348900   300.25583     -35.489792      30070.215      0.99484732    -8211.379     
    349000   308.13981      699.21069      30070.215      0.99484732    -8150.2392    
    349100   298.45653      94.749105      30070.215      0.99484732    -8181.9468    
    349200   300.6899       443.92588      30070.215      0.99484732    -8204.4604    
    349300   298.65786      16.435667      30070.215      0.99484732    -8240.3581    
    349400   296.55405      424.92904      30070.215      0.99484732    -8263.23      
    349500   292.29386      568.32709      30070.215      0.99484732    -8296.6496    
    349600   296.93847     -187.90226      30070.215      0.99484732    -8350.0517    
    349700   294.25474     -114.63979      30070.215      0.99484732    -8370.8701    
    349800   295.63544      281.40327      30070.215      0.99484732    -8287.1495    
    349900   302.85889      264.32473      30070.215      0.99484732    -8234.9427    
    350000   299.87128     -112.81828      30070.215      0.99484732    -8242.1975    
    350100   300.01507     -637.09372      30070.215      0.99484732    -8285.3106    
    350200   294.34564     -189.2713       30070.215      0.99484732    -8296.3476    
    350300   305.94115     -281.28924      30070.215      0.99484732    -8214.0565    
    350400   297.97022     -62.773874      30070.215      0.99484732    -8172.0322    
    350500   303.4048      -160.47236      30070.215      0.99484732    -8166.16      
    350600   307.15529     -337.26953      30070.215      0.99484732    -8173.4041    
    350700   296.00544     -174.11739      30070.215      0.99484732    -8231.4774    
    350800   293.09566     -62.652246      30070.215      0.99484732    -8291.4985    
    350900   294.38714     -117.51901      30070.215      0.99484732    -8292.9625    
    351000   291.73427     -237.56253      30070.215      0.99484732    -8215.1308    
    351100   310.30344     -0.51708775     30070.215      0.99484732    -8176.2695    
    351200   301.54506      260.70131      30070.215      0.99484732    -8216.1226    
    351300   303.88171     -306.90638      30070.215      0.99484732    -8279.0667    
    351400   301.38943     -249.92434      30070.215      0.99484732    -8305.4596    
    351500   301.33741      551.59907      30070.215      0.99484732    -8270.2865    
    351600   306.52615      751.58499      30070.215      0.99484732    -8211.2014    
    351700   299.9925       878.99207      30070.215      0.99484732    -8236.1977    
    351800   298.71587      141.24136      30070.215      0.99484732    -8259.0332    
    351900   301.12721     -220.30001      30070.215      0.99484732    -8254.1141    
    352000   304.31516      109.75541      30070.215      0.99484732    -8225.8482    
    352100   303.80621     -320.97676      30070.215      0.99484732    -8164.2208    
    352200   314.76438     -71.45688       30070.215      0.99484732    -8143.1203    
    352300   300.26003      222.54927      30070.215      0.99484732    -8196.8158    
    352400   294.87468      107.64964      30070.215      0.99484732    -8259.4817    
    352500   297.92824     -21.317082      30070.215      0.99484732    -8275.8088    
    352600   298.69524      546.8026       30070.215      0.99484732    -8272.812     
    352700   300.42123      278.14913      30070.215      0.99484732    -8258.8148    
    352800   306.89016      238.03476      30070.215      0.99484732    -8253.5128    
    352900   301.88278     -47.795181      30070.215      0.99484732    -8256.672     
    353000   295.83082     -75.237869      30070.215      0.99484732    -8265.1903    
    353100   297.10615     -4.0904883      30070.215      0.99484732    -8224.2109    
    353200   302.95901     -247.37832      30070.215      0.99484732    -8157.4139    
    353300   300.64538     -858.39819      30070.215      0.99484732    -8131.5449    
    353400   294.78305     -502.44953      30070.215      0.99484732    -8116.9965    
    353500   310.56412      402.17064      30070.215      0.99484732    -8095.3695    
    353600   306.07076      193.12561      30070.215      0.99484732    -8179.9665    
    353700   296.80304     -122.10884      30070.215      0.99484732    -8248.0328    
    353800   294.58811      419.34923      30070.215      0.99484732    -8266.9678    
    353900   301.59948     -1.8460117      30070.215      0.99484732    -8262.284     
    354000   299.89629     -479.80092      30070.215      0.99484732    -8284.851     
    354100   289.422       -454.87138      30070.215      0.99484732    -8286.9088    
    354200   302.80549      93.137837      30070.215      0.99484732    -8201.3881    
    354300   300.17104      752.241        30070.215      0.99484732    -8199.3244    
    354400   302.78034     -209.05973      30070.215      0.99484732    -8243.3708    
    354500   297.37573     -292.00326      30070.215      0.99484732    -8263.4488    
    354600   312.57321     -271.07776      30070.215      0.99484732    -8196.757     
    354700   303.76086     -366.87605      30070.215      0.99484732    -8137.2185    
    354800   305.50477     -405.35209      30070.215      0.99484732    -8138.6821    
    354900   301.59861      702.64384      30070.215      0.99484732    -8184.9616    
    355000   304.26632      1251.6199      30070.215      0.99484732    -8220.0152    
    355100   290.46725     -208.13793      30070.215      0.99484732    -8261.1888    
    355200   294.34461     -259.76773      30070.215      0.99484732    -8269.2552    
    355300   307.86856     -17.882363      30070.215      0.99484732    -8212.0533    
    355400   301.90989     -130.33887      30070.215      0.99484732    -8157.3872    
    355500   294.61114     -154.95011      30070.215      0.99484732    -8141.1308    
    355600   299.86243      105.79336      30070.215      0.99484732    -8137.8081    
    355700   290.93788     -75.175251      30070.215      0.99484732    -8156.4812    
    355800   303.49607     -241.4295       30070.215      0.99484732    -8167.2673    
    355900   303.99423      114.45128      30070.215      0.99484732    -8236.9652    
    356000   289.57445     -694.12682      30070.215      0.99484732    -8280.404     
    356100   300.09399      143.78084      30070.215      0.99484732    -8254.0038    
    356200   293.71361      170.42576      30070.215      0.99484732    -8234.8818    
    356300   303.93581      375.22603      30070.215      0.99484732    -8221.1224    
    356400   296.54607     -519.19902      30070.215      0.99484732    -8255.9006    
    356500   302.23385     -708.93114      30070.215      0.99484732    -8292.405     
    356600   297.5672      -586.15453      30070.215      0.99484732    -8282.6343    
    356700   302.12934      624.41009      30070.215      0.99484732    -8204.6885    
    356800   308.51671      440.19173      30070.215      0.99484732    -8197.5439    
    356900   301.2403       542.29061      30070.215      0.99484732    -8244.7065    
    357000   290.66829      705.24311      30070.215      0.99484732    -8274.2785    
    357100   295.17722     -107.08419      30070.215      0.99484732    -8265.0098    
    357200   305.17231      373.51213      30070.215      0.99484732    -8224.794     
    357300   303.86155      563.52122      30070.215      0.99484732    -8199.3141    
    357400   309.74766     -59.948413      30070.215      0.99484732    -8263.3341    
    357500   291.66524     -258.63714      30070.215      0.99484732    -8323.7892    
    357600   298.48987     -177.89647      30070.215      0.99484732    -8306.1775    
    357700   304.45188      413.3142       30070.215      0.99484732    -8258.8527    
    357800   301.97844      44.922518      30070.215      0.99484732    -8229.3859    
    357900   300.64493      323.51438      30070.215      0.99484732    -8255.485     
    358000   287.88164      127.53002      30070.215      0.99484732    -8336.2666    
    358100   296.32982      27.513873      30070.215      0.99484732    -8310.9329    
    358200   302.73402     -4.3517484      30070.215      0.99484732    -8261.623     
    358300   300.98855      15.58375       30070.215      0.99484732    -8237.5724    
    358400   301.60193      549.49556      30070.215      0.99484732    -8205.9977    
    358500   302.20016      1123.8506      30070.215      0.99484732    -8173.0612    
    358600   305.72938      648.65138      30070.215      0.99484732    -8167.6756    
    358700   305.83257     -76.546113      30070.215      0.99484732    -8266.4215    
    358800   301.09776     -109.49903      30070.215      0.99484732    -8303.312     
    358900   298.63655     -426.2047       30070.215      0.99484732    -8273.9066    
    359000   300.76957     -98.539029      30070.215      0.99484732    -8210.1716    
    359100   303.29911     -191.32601      30070.215      0.99484732    -8186.154     
    359200   296.47349     -367.9913       30070.215      0.99484732    -8204.0817    
    359300   296.32302     -433.81766      30070.215      0.99484732    -8287.8625    
    359400   297.71236     -569.79703      30070.215      0.99484732    -8324.6392    
    359500   291.82444     -34.739584      30070.215      0.99484732    -8303.215     
    359600   301.95812     -128.18641      30070.215      0.99484732    -8236.2055    
    359700   305.69239     -520.22375      30070.215      0.99484732    -8205.148     
    359800   313.18626     -131.71783      30070.215      0.99484732    -8223.9323    
    359900   293.01121      153.0408       30070.215      0.99484732    -8275.4524    
    360000   299.52676      716.21766      30070.215      0.99484732    -8254.6218    
    360100   305.81347      62.74688       30070.215      0.99484732    -8192.3093    
    360200   308.77179      358.76235      30070.215      0.99484732    -8129.278     
    360300   303.64053      462.37565      30070.215      0.99484732    -8168.0165    
    360400   298.65554      1362.7983      30070.215      0.99484732    -8235.6627    
    360500   297.31599      557.21489      30070.215      0.99484732    -8273.2606    
    360600   300.35414      943.47333      30070.215      0.99484732    -8282.5682    
    360700   290.72653      312.56741      30070.215      0.99484732    -8262.9484    
    360800   308.8822      -304.93862      30070.215      0.99484732    -8178.0781    
    360900   310.08511     -25.458304      30070.215      0.99484732    -8164.1934    
    361000   297.95378      647.92242      30070.215      0.99484732    -8204.3795    
    361100   302.25741      216.63181      30070.215      0.99484732    -8231.2738    
    361200   304.20399     -155.8767       30070.215      0.99484732    -8245.6925    
    361300   291.78483      53.146142      30070.215      0.99484732    -8264.1046    
    361400   293.83825      83.882666      30070.215      0.99484732    -8215.8978    
    361500   304.28208     -332.30734      30070.215      0.99484732    -8150.8105    
    361600   299.61558      171.44046      30070.215      0.99484732    -8148.6075    
    361700   309.74846     -371.05847      30070.215      0.99484732    -8172.5632    
    361800   295.04803     -227.74154      30070.215      0.99484732    -8251.4394    
    361900   294.88675     -369.03184      30070.215      0.99484732    -8259.6785    
    362000   302.05848     -167.47847      30070.215      0.99484732    -8231.1553    
    362100   306.86296     -127.44451      30070.215      0.99484732    -8186.7701    
    362200   304.35055      479.57295      30070.215      0.99484732    -8112.3849    
    362300   311.19634      574.74865      30070.215      0.99484732    -8083.0548    
    362400   310.47796     -168.15336      30070.215      0.99484732    -8156.6754    
    362500   307.68138     -36.673246      30070.215      0.99484732    -8194.9249    
    362600   298.18599      422.62222      30070.215      0.99484732    -8243.6729    
    362700   302.36844     -745.98218      30070.215      0.99484732    -8277.2468    
    362800   304.75502     -530.28766      30070.215      0.99484732    -8301.8691    
    362900   285.28138      19.685847      30070.215      0.99484732    -8353.9465    
    363000   303.1935      -399.74175      30070.215      0.99484732    -8338.3014    
    363100   304.48337      145.45781      30070.215      0.99484732    -8251.6269    
    363200   303.31257      658.90327      30070.215      0.99484732    -8241.6517    
    363300   297.08717      351.29459      30070.215      0.99484732    -8291.0261    
    363400   295.64286     -457.23621      30070.215      0.99484732    -8312.8741    
    363500   298.33726      75.240311      30070.215      0.99484732    -8289.7093    
    363600   305.8845       323.18826      30070.215      0.99484732    -8187.202     
    363700   309.16905      832.19678      30070.215      0.99484732    -8175.0622    
    363800   300.67172     -410.98447      30070.215      0.99484732    -8231.431     
    363900   297.3793      -340.95522      30070.215      0.99484732    -8239.0605    
    364000   299.0647       352.01891      30070.215      0.99484732    -8218.2502    
    364100   302.25554      66.850466      30070.215      0.99484732    -8231.5585    
    364200   292.69822     -393.07382      30070.215      0.99484732    -8289.0884    
    364300   298.29998     -217.01907      30070.215      0.99484732    -8282.102     
    364400   298.40418      115.58791      30070.215      0.99484732    -8219.4791    
    364500   301.14777     -610.99793      30070.215      0.99484732    -8170.4781    
    364600   304.69229      140.93289      30070.215      0.99484732    -8152.7184    
    364700   304.13818     -32.787284      30070.215      0.99484732    -8175.9546    
    364800   299.05959     -153.35313      30070.215      0.99484732    -8213.3126    
    364900   294.21351      230.59123      30070.215      0.99484732    -8254.8935    
    365000   291.67968      218.46575      30070.215      0.99484732    -8276.2852    
    365100   305.1157      -295.55461      30070.215      0.99484732    -8273.6074    
    365200   298.2726      -7.8380152      30070.215      0.99484732    -8276.1546    
    365300   307.63122     -307.48301      30070.215      0.99484732    -8287.9978    
    365400   298.93472     -356.83674      30070.215      0.99484732    -8303.6575    
    365500   308.00273      83.441408      30070.215      0.99484732    -8349.273     
    365600   287.70795     -19.065017      30070.215      0.99484732    -8408.3649    
    365700   296.6003       313.37781      30070.215      0.99484732    -8372.3974    
    365800   303.88619     -253.75824      30070.215      0.99484732    -8337.8754    
    365900   294.57084     -1118.5036      30070.215      0.99484732    -8327.1432    
    366000   300.70815     -146.3581       30070.215      0.99484732    -8266.4302    
    366100   302.83881     -149.89826      30070.215      0.99484732    -8254.5647    
    366200   306.94738     -126.41655      30070.215      0.99484732    -8273.2146    
    366300   301.60272     -28.039602      30070.215      0.99484732    -8291.3935    
    366400   302.32333      287.37307      30070.215      0.99484732    -8300.1869    
    366500   290.87001     -354.73672      30070.215      0.99484732    -8303.9197    
    366600   304.17636      374.78464      30070.215      0.99484732    -8240.7177    
    366700   304.97257      586.06974      30070.215      0.99484732    -8225.377     
    366800   299.29187      247.09277      30070.215      0.99484732    -8256.9184    
    366900   298.55307      189.65661      30070.215      0.99484732    -8278.1914    
    367000   290.99475     -527.38643      30070.215      0.99484732    -8290.0422    
    367100   296.42893     -74.74858       30070.215      0.99484732    -8270.3823    
    367200   303.20836     -303.12667      30070.215      0.99484732    -8234.045     
    367300   288.94798      139.29582      30070.215      0.99484732    -8234.7325    
    367400   299.49945     -226.55017      30070.215      0.99484732    -8247.1766    
    367500   299.52696     -446.09882      30070.215      0.99484732    -8279.8599    
    367600   284.29837      42.982484      30070.215      0.99484732    -8279.1142    
    367700   303.99464      183.09044      30070.215      0.99484732    -8195.5306    
    367800   305.75098     -102.79634      30070.215      0.99484732    -8214.0268    
    367900   295.27308     -367.67791      30070.215      0.99484732    -8273.8232    
    368000   293.12709     -400.9931       30070.215      0.99484732    -8277.0217    
    368100   301.3764      -658.99748      30070.215      0.99484732    -8205.8353    
    368200   302.21598     -656.25574      30070.215      0.99484732    -8189.9047    
    368300   300.71387     -237.8807       30070.215      0.99484732    -8196.5003    
    368400   294.08502      241.94215      30070.215      0.99484732    -8222.0681    
    368500   298.03043     -123.30069      30070.215      0.99484732    -8237.8157    
    368600   306.04716      103.14728      30070.215      0.99484732    -8208.7156    
    368700   302.84339     -365.55562      30070.215      0.99484732    -8207.5714    
    368800   287.78539      290.98032      30070.215      0.99484732    -8249.8778    
    368900   297.19496     -396.7018       30070.215      0.99484732    -8253.2293    
    369000   312.51431      213.68225      30070.215      0.99484732    -8181.3386    
    369100   300.6661       234.10687      30070.215      0.99484732    -8179.8102    
    369200   302.00073      148.40226      30070.215      0.99484732    -8237.8901    
    369300   299.88199     -124.87426      30070.215      0.99484732    -8249.1037    
    369400   303.80706     -18.135716      30070.215      0.99484732    -8238.4297    
    369500   302.39661     -20.785798      30070.215      0.99484732    -8241.5804    
    369600   292.53729     -83.019899      30070.215      0.99484732    -8248.2984    
    369700   309.44378      302.95432      30070.215      0.99484732    -8178.5378    
    369800   309.69987      396.04628      30070.215      0.99484732    -8146.8846    
    369900   302.28759      721.70363      30070.215      0.99484732    -8211.9653    
    370000   297.41633      505.65166      30070.215      0.99484732    -8245.2298    
    370100   295.13858      255.76999      30070.215      0.99484732    -8239.3564    
    370200   299.07073      645.8611       30070.215      0.99484732    -8190.6226    
    370300   302.14943      125.27116      30070.215      0.99484732    -8134.2902    
    370400   306.24483      249.05267      30070.215      0.99484732    -8161.1215    
    370500   306.21888     -141.32058      30070.215      0.99484732    -8212.9622    
    370600   297.1084      -240.14139      30070.215      0.99484732    -8264.5137    
    370700   302.59363     -372.15897      30070.215      0.99484732    -8299.1744    
    370800   284.562       -734.30885      30070.215      0.99484732    -8302.5942    
    370900   302.62168     -311.91206      30070.215      0.99484732    -8202.0535    
    371000   299.90502      248.58239      30070.215      0.99484732    -8186.8404    
    371100   300.98089     -436.46773      30070.215      0.99484732    -8209.5797    
    371200   305.70111     -512.42124      30070.215      0.99484732    -8258.5693    
    371300   292.89548     -187.07496      30070.215      0.99484732    -8307.7692    
    371400   299.79693     -433.41191      30070.215      0.99484732    -8284.4961    
    371500   299.50151     -611.42569      30070.215      0.99484732    -8216.6876    
    371600   308.89016      309.30616      30070.215      0.99484732    -8181.2116    
    371700   304.35611      396.57963      30070.215      0.99484732    -8197.5407    
    371800   295.02518     -83.984255      30070.215      0.99484732    -8264.496     
    371900   306.02921     -352.61997      30070.215      0.99484732    -8302.232     
    372000   287.83493     -355.12966      30070.215      0.99484732    -8338.993     
    372100   293.49261     -248.11908      30070.215      0.99484732    -8297.414     
    372200   304.95536     -607.7032       30070.215      0.99484732    -8236.5883    
    372300   302.00976      216.46221      30070.215      0.99484732    -8238.4849    
    372400   299.94165      31.712973      30070.215      0.99484732    -8237.7605    
    372500   306.07928      184.22083      30070.215      0.99484732    -8239.3805    
    372600   296.47679      247.33898      30070.215      0.99484732    -8319.0262    
    372700   301.50569     -995.63804      30070.215      0.99484732    -8340.6703    
    372800   298.13081     -16.682602      30070.215      0.99484732    -8302.0935    
    372900   297.3586       86.040115      30070.215      0.99484732    -8274.4631    
    373000   302.11552     -304.00657      30070.215      0.99484732    -8255.8599    
    373100   306.73242      458.26613      30070.215      0.99484732    -8251.1548    
    373200   308.2341       235.59181      30070.215      0.99484732    -8288.2282    
    373300   291.09293      407.54518      30070.215      0.99484732    -8323.1864    
    373400   290.90603      243.76291      30070.215      0.99484732    -8322.9101    
    373500   302.65408     -204.01736      30070.215      0.99484732    -8245.4191    
    373600   302.65906      11.290717      30070.215      0.99484732    -8210.3105    
    373700   305.87945     -94.734455      30070.215      0.99484732    -8230.3847    
    373800   290.77191     -180.56698      30070.215      0.99484732    -8273.3875    
    373900   300.90173      137.54067      30070.215      0.99484732    -8234.0433    
    374000   307.67216      99.372667      30070.215      0.99484732    -8204.6513    
    374100   305.37448     -45.158571      30070.215      0.99484732    -8288.1831    
    374200   297.1341      -536.21312      30070.215      0.99484732    -8351.0381    
    374300   292.75263      221.64503      30070.215      0.99484732    -8307.9566    
    374400   302.27501      52.589756      30070.215      0.99484732    -8239.5258    
    374500   307.37058      299.4682       30070.215      0.99484732    -8208.3404    
    374600   303.22532     -570.68648      30070.215      0.99484732    -8237.2394    
    374700   295.72983     -206.36856      30070.215      0.99484732    -8288.2782    
    374800   305.08625     -265.37787      30070.215      0.99484732    -8271.2809    
    374900   305.69713      687.9314       30070.215      0.99484732    -8171.5471    
    375000   307.94584      487.03391      30070.215      0.99484732    -8163.0325    
    375100   302.87033     -178.31433      30070.215      0.99484732    -8212.3428    
    375200   298.3113       50.586874      30070.215      0.99484732    -8243.5331    
    375300   297.21751     -149.20577      30070.215      0.99484732    -8227.9602    
    375400   318.8735       616.10021      30070.215      0.99484732    -8134.2032    
    375500   309.53996      771.08963      30070.215      0.99484732    -8147.1553    
    375600   294.15267      331.71207      30070.215      0.99484732    -8191.8815    
    375700   288.00222      270.76013      30070.215      0.99484732    -8207.9829    
    375800   306.11627     -52.81093       30070.215      0.99484732    -8153.9109    
    375900   305.75788      38.755675      30070.215      0.99484732    -8152.8786    
    376000   298.52304     -230.01341      30070.215      0.99484732    -8177.8407    
    376100   301.25212     -215.73141      30070.215      0.99484732    -8193.4829    
    376200   300.77536     -404.20324      30070.215      0.99484732    -8232.1189    
    376300   288.85845     -279.59439      30070.215      0.99484732    -8272.9566    
    376400   290.49751      188.29476      30070.215      0.99484732    -8282.0698    
    376500   297.31203      190.58809      30070.215      0.99484732    -8229.7199    
    376600   302.617        277.68237      30070.215      0.99484732    -8173.3494    
    376700   299.70204      262.36274      30070.215      0.99484732    -8159.9709    
    376800   303.59058     -445.28531      30070.215      0.99484732    -8192.4909    
    376900   299.53511     -655.72269      30070.215      0.99484732    -8267.274     
    377000   293.62466     -530.98368      30070.215      0.99484732    -8258.7387    
    377100   307.22317     -348.45578      30070.215      0.99484732    -8221.783     
    377200   298.85691     -199.08605      30070.215      0.99484732    -8233.8333    
    377300   294.05936     -144.93584      30070.215      0.99484732    -8255.3855    
    377400   290.83084      84.527058      30070.215      0.99484732    -8279.4941    
    377500   299.62106     -423.50015      30070.215      0.99484732    -8314.1685    
    377600   295.46603     -284.6315       30070.215      0.99484732    -8337.728     
    377700   298.58176      534.81267      30070.215      0.99484732    -8319.1266    
    377800   299.11476      387.21084      30070.215      0.99484732    -8249.7159    
    377900   294.41732      141.58767      30070.215      0.99484732    -8205.5968    
    378000   306.83101     -597.53825      30070.215      0.99484732    -8191.1055    
    378100   304.67704     -240.0417       30070.215      0.99484732    -8187.8998    
    378200   296.61922     -488.5296       30070.215      0.99484732    -8256.4476    
    378300   296.59469     -448.34945      30070.215      0.99484732    -8304.5723    
    378400   298.13854      363.1866       30070.215      0.99484732    -8311.1867    
    378500   294.70731      156.01381      30070.215      0.99484732    -8290.4852    
    378600   309.0584       359.58406      30070.215      0.99484732    -8227.9291    
    378700   305.31299      541.97787      30070.215      0.99484732    -8207.0446    
    378800   293.68657     -302.47172      30070.215      0.99484732    -8274.9882    
    378900   289.71391     -375.77363      30070.215      0.99484732    -8306.7094    
    379000   294.74848     -181.80609      30070.215      0.99484732    -8262.104     
    379100   305.53035      202.28503      30070.215      0.99484732    -8225.4581    
    379200   294.14398      648.90629      30070.215      0.99484732    -8249.5191    
    379300   300.839        402.39155      30070.215      0.99484732    -8286.8143    
    379400   289.69713     -236.12517      30070.215      0.99484732    -8354.7418    
    379500   291.11469     -128.74665      30070.215      0.99484732    -8381.5365    
    379600   299.9121       305.47572      30070.215      0.99484732    -8281.0965    
    379700   305.25568      542.00452      30070.215      0.99484732    -8266.9641    
    379800   301.00945      221.20229      30070.215      0.99484732    -8287.3616    
    379900   295.33738     -375.60446      30070.215      0.99484732    -8333.1238    
    380000   302.90495     -140.43141      30070.215      0.99484732    -8310.9029    
    380100   297.93373     -362.5486       30070.215      0.99484732    -8256.4531    
    380200   311.20181     -4.7147159      30070.215      0.99484732    -8194.5495    
    380300   307.77444      219.31322      30070.215      0.99484732    -8178.4675    
    380400   302.98783     -7.8323121      30070.215      0.99484732    -8270.346     
    380500   296.24788     -178.18928      30070.215      0.99484732    -8322.0064    
    380600   297.06699     -452.6267       30070.215      0.99484732    -8297.1387    
    380700   299.2849      -739.1303       30070.215      0.99484732    -8242.6174    
    380800   299.97834     -39.01938       30070.215      0.99484732    -8194.6949    
    380900   298.13        -223.48862      30070.215      0.99484732    -8188.0818    
    381000   298.92983     -546.44087      30070.215      0.99484732    -8221.2526    
    381100   295.44437     -844.29612      30070.215      0.99484732    -8322.8764    
    381200   296.18586     -130.26574      30070.215      0.99484732    -8328.4546    
    381300   304.2212       12.054326      30070.215      0.99484732    -8293.7946    
    381400   305.22939     -109.16335      30070.215      0.99484732    -8254.1129    
    381500   314.98873      354.41642      30070.215      0.99484732    -8217.9461    
    381600   296.12734     -544.56317      30070.215      0.99484732    -8265.3624    
    381700   292.08444     -208.09322      30070.215      0.99484732    -8317.2866    
    381800   298.53127     -180.56846      30070.215      0.99484732    -8322.1311    
    381900   293.63546      282.81219      30070.215      0.99484732    -8323.4948    
    382000   303.7621       361.80892      30070.215      0.99484732    -8297.1045    
    382100   298.85433     -155.15765      30070.215      0.99484732    -8295.0557    
    382200   297.43841     -466.75568      30070.215      0.99484732    -8306.4922    
    382300   302.23236     -542.00945      30070.215      0.99484732    -8335.7359    
    382400   293.79542     -314.23973      30070.215      0.99484732    -8360.8006    
    382500   300.31939     -411.69422      30070.215      0.99484732    -8299.3454    
    382600   301.22627     -174.40223      30070.215      0.99484732    -8238.2417    
    382700   301.56472      393.90893      30070.215      0.99484732    -8224.9989    
    382800   307.77739      733.05239      30070.215      0.99484732    -8263.3217    
    382900   305.44911     -239.70841      30070.215      0.99484732    -8341.0291    
    383000   294.78319      202.83998      30070.215      0.99484732    -8348.8047    
    383100   300.39364      38.63904       30070.215      0.99484732    -8306.4421    
    383200   301.97459      196.84829      30070.215      0.99484732    -8247.2632    
    383300   305.24692     -122.19891      30070.215      0.99484732    -8220.9161    
    383400   298.62857     -53.947536      30070.215      0.99484732    -8228.1192    
    383500   301.21433     -65.630133      30070.215      0.99484732    -8245.4763    
    383600   297.16679      780.84888      30070.215      0.99484732    -8247.8553    
    383700   302.47486     -353.98243      30070.215      0.99484732    -8253.6158    
    383800   293.34015     -145.25978      30070.215      0.99484732    -8275.1238    
    383900   297.79056     -498.72028      30070.215      0.99484732    -8240.226     
    384000   304.47116      151.68916      30070.215      0.99484732    -8195.4716    
    384100   297.49022     -71.411557      30070.215      0.99484732    -8205.8535    
    384200   296.5407       350.14508      30070.215      0.99484732    -8237.0372    
    384300   300.67867      35.60708       30070.215      0.99484732    -8262.557     
    384400   292.20448      21.356404      30070.215      0.99484732    -8297.8476    
    384500   293.2514       346.32681      30070.215      0.99484732    -8307.2103    
    384600   296.3686       529.48402      30070.215      0.99484732    -8251.1173    
    384700   312.73381     -394.94111      30070.215      0.99484732    -8206.0285    
    384800   296.23958      184.3745       30070.215      0.99484732    -8229.6218    
    384900   294.25115      212.50574      30070.215      0.99484732    -8252.3488    
    385000   295.40984     -619.34104      30070.215      0.99484732    -8273.6385    
    385100   285.23794     -317.77503      30070.215      0.99484732    -8295.724     
    385200   293.04183      427.64109      30070.215      0.99484732    -8238.9652    
    385300   304.15006      84.252508      30070.215      0.99484732    -8185.1849    
    385400   308.87369      174.79434      30070.215      0.99484732    -8172.7218    
    385500   302.66619     -149.32631      30070.215      0.99484732    -8190.9863    
    385600   298.62828      683.99658      30070.215      0.99484732    -8288.7357    
    385700   297.36063     -164.34821      30070.215      0.99484732    -8317.1494    
    385800   296.71187     -262.97336      30070.215      0.99484732    -8291.5473    
    385900   304.85255      700.75188      30070.215      0.99484732    -8235.027     
    386000   302.24867      722.59921      30070.215      0.99484732    -8239.5365    
    386100   296.19982     -57.746894      30070.215      0.99484732    -8286.3174    
    386200   300.41319     -429.38605      30070.215      0.99484732    -8331.6101    
    386300   290.10153      6.4847232      30070.215      0.99484732    -8423.1403    
    386400   284.87547      190.57851      30070.215      0.99484732    -8422.5953    
    386500   298.25571     -79.748749      30070.215      0.99484732    -8345.9469    
    386600   294.99363      381.87239      30070.215      0.99484732    -8308.1997    
    386700   299.8272       503.63248      30070.215      0.99484732    -8264.8681    
    386800   305.63293      17.603666      30070.215      0.99484732    -8250.0012    
    386900   299.22474     -237.5675       30070.215      0.99484732    -8299.4987    
    387000   288.16652     -275.61906      30070.215      0.99484732    -8365.8989    
    387100   298.44208      69.315155      30070.215      0.99484732    -8341.4167    
    387200   304.3663       149.91246      30070.215      0.99484732    -8307.455     
    387300   288.47609      283.47539      30070.215      0.99484732    -8298.821     
    387400   302.69349     -82.053617      30070.215      0.99484732    -8258.9088    
    387500   303.90493      258.80881      30070.215      0.99484732    -8249.9327    
    387600   302.23901     -442.5069       30070.215      0.99484732    -8314.9877    
    387700   290.06546      39.199228      30070.215      0.99484732    -8375.1547    
    387800   293.36364      93.051331      30070.215      0.99484732    -8351.6585    
    387900   299.87869      263.87961      30070.215      0.99484732    -8277.7474    
    388000   302.27901      393.53264      30070.215      0.99484732    -8244.6524    
    388100   310.10327      30.143341      30070.215      0.99484732    -8228.9492    
    388200   296.77777     -254.70126      30070.215      0.99484732    -8270.5924    
    388300   297.30765     -157.62899      30070.215      0.99484732    -8325.4532    
    388400   300.64631      68.855761      30070.215      0.99484732    -8359.7087    
    388500   284.36167     -260.62387      30070.215      0.99484732    -8421.3658    
    388600   292.13721      333.12017      30070.215      0.99484732    -8398.7737    
    388700   295.16696      765.20838      30070.215      0.99484732    -8328.5597    
    388800   297.44505     -3.501429       30070.215      0.99484732    -8286.628     
    388900   305.69172     -448.0542       30070.215      0.99484732    -8232.9326    
    389000   298.37788      30.443271      30070.215      0.99484732    -8206.4786    
    389100   292.16352      208.16072      30070.215      0.99484732    -8185.9505    
    389200   300.01184      260.81634      30070.215      0.99484732    -8131.0472    
    389300   316.36317      337.04285      30070.215      0.99484732    -8069.3524    
    389400   312.94713     -339.06503      30070.215      0.99484732    -8156.9353    
    389500   304.68793     -84.726417      30070.215      0.99484732    -8235.5233    
    389600   302.66745      112.62067      30070.215      0.99484732    -8301.8645    
    389700   291.97901      166.36994      30070.215      0.99484732    -8341.1547    
    389800   296.69633      305.70071      30070.215      0.99484732    -8302.8823    
    389900   298.23525      228.1331       30070.215      0.99484732    -8234.0543    
    390000   308.31249      35.027539      30070.215      0.99484732    -8220.8866    
    390100   292.62782      311.82712      30070.215      0.99484732    -8267.4935    
    390200   309.8189      -295.10197      30070.215      0.99484732    -8292.3301    
    390300   299.30806      50.155046      30070.215      0.99484732    -8291.5957    
    390400   295.96667      722.16676      30070.215      0.99484732    -8268.1946    
    390500   297.52537      675.34856      30070.215      0.99484732    -8254.0859    
    390600   303.44809      1015.7131      30070.215      0.99484732    -8254.8827    
    390700   303.66335     -374.21875      30070.215      0.99484732    -8292.5108    
    390800   291.7425       397.20385      30070.215      0.99484732    -8353.284     
    390900   293.11287     -86.387133      30070.215      0.99484732    -8334.6499    
    391000   304.36056     -211.05704      30070.215      0.99484732    -8235.6778    
    391100   304.17947      759.7656       30070.215      0.99484732    -8220.2646    
    391200   297.29894     -447.69177      30070.215      0.99484732    -8260.2569    
    391300   297.46518     -553.76135      30070.215      0.99484732    -8292.1113    
    391400   297.60379      173.27615      30070.215      0.99484732    -8281.4961    
    391500   307.87857     -234.09292      30070.215      0.99484732    -8218.6114    
    391600   293.78979      167.01897      30070.215      0.99484732    -8204.1858    
    391700   304.5377      -44.804069      30070.215      0.99484732    -8199.3247    
    391800   305.79178     -202.15825      30070.215      0.99484732    -8258.1829    
    391900   303.27218      72.371782      30070.215      0.99484732    -8316.9961    
    392000   298.8147       14.673473      30070.215      0.99484732    -8338.7752    
    392100   293.01658      369.43896      30070.215      0.99484732    -8366.0009    
    392200   299.46805     -525.54148      30070.215      0.99484732    -8395.9564    
    392300   295.32259     -881.69078      30070.215      0.99484732    -8380.0612    
    392400   301.58383     -210.60299      30070.215      0.99484732    -8300.1185    
    392500   303.90995      644.06613      30070.215      0.99484732    -8273.8897    
    392600   294.69335      378.13371      30070.215      0.99484732    -8298.5149    
    392700   293.31856      402.54046      30070.215      0.99484732    -8310.8972    
    392800   302.24936     -140.66874      30070.215      0.99484732    -8252.2005    
    392900   297.75993     -209.19616      30070.215      0.99484732    -8205.4553    
    393000   299.63455     -536.92346      30070.215      0.99484732    -8180.13      
    393100   305.73437      188.68529      30070.215      0.99484732    -8179.9584    
    393200   294.07706     -485.12617      30070.215      0.99484732    -8231.3062    
    393300   302.32598     -378.9639       30070.215      0.99484732    -8285.9418    
    393400   296.30564      237.086        30070.215      0.99484732    -8296.4387    
    393500   299.93974     -32.239447      30070.215      0.99484732    -8237.1653    
    393600   305.07233     -181.72297      30070.215      0.99484732    -8173.8529    
    393700   310.66963      336.01068      30070.215      0.99484732    -8201.2366    
    393800   307.13124      524.27485      30070.215      0.99484732    -8270.3754    
    393900   294.18463     -257.18499      30070.215      0.99484732    -8304.6766    
    394000   298.68385     -99.226244      30070.215      0.99484732    -8284.5488    
    394100   305.69864     -124.25442      30070.215      0.99484732    -8248.5402    
    394200   304.79767      55.633536      30070.215      0.99484732    -8280.9683    
    394300   292.68982     -19.235566      30070.215      0.99484732    -8350.3074    
    394400   298.72158      376.7692       30070.215      0.99484732    -8324.4567    
    394500   301.86071     -177.20065      30070.215      0.99484732    -8275.299     
    394600   305.22126     -379.10081      30070.215      0.99484732    -8236.7153    
    394700   302.08682      343.36884      30070.215      0.99484732    -8230.4165    
    394800   301.11536      172.50576      30070.215      0.99484732    -8243.2633    
    394900   295.55349     -257.40443      30070.215      0.99484732    -8259.7131    
    395000   295.76909      420.58618      30070.215      0.99484732    -8215.7716    
    395100   301.71051     -274.32913      30070.215      0.99484732    -8166.9202    
    395200   302.69923     -242.90022      30070.215      0.99484732    -8181.0953    
    395300   294.45661     -25.682057      30070.215      0.99484732    -8263.2561    
    395400   298.10058     -450.55538      30070.215      0.99484732    -8319.0147    
    395500   298.89453     -100.80183      30070.215      0.99484732    -8291.5489    
    395600   299.34156      666.34493      30070.215      0.99484732    -8239.0107    
    395700   303.35889      48.581518      30070.215      0.99484732    -8228.6458    
    395800   291.46242      202.45877      30070.215      0.99484732    -8262.3333    
    395900   287.06114      21.264099      30070.215      0.99484732    -8308.3761    
    396000   297.10787     -74.10588       30070.215      0.99484732    -8251.19      
    396100   300.82381     -400.88692      30070.215      0.99484732    -8206.204     
    396200   300.58241     -58.12088       30070.215      0.99484732    -8199.6277    
    396300   293.52735      417.3915       30070.215      0.99484732    -8204.0995    
    396400   300.94999     -18.20804       30070.215      0.99484732    -8245.2874    
    396500   298.49682     -290.83708      30070.215      0.99484732    -8310.3452    
    396600   294.25458     -489.11915      30070.215      0.99484732    -8324.346     
    396700   312.20684     -45.752801      30070.215      0.99484732    -8258.6546    
    396800   300.92115      19.581277      30070.215      0.99484732    -8247.0449    
    396900   298.78834     -34.130529      30070.215      0.99484732    -8247.4123    
    397000   301.91574      115.42196      30070.215      0.99484732    -8223.8029    
    397100   305.90884      723.24322      30070.215      0.99484732    -8166.9354    
    397200   309.02256      431.77081      30070.215      0.99484732    -8098.8666    
    397300   308.29461     -10.884347      30070.215      0.99484732    -8085.8126    
    397400   298.20661     -228.84683      30070.215      0.99484732    -8178.9321    
    397500   298.66979     -131.30739      30070.215      0.99484732    -8204.2421    
    397600   300.52573     -357.1229       30070.215      0.99484732    -8153.6709    
    397700   298.6955       334.7443       30070.215      0.99484732    -8109.5195    
    397800   304.04039     -907.49084      30070.215      0.99484732    -8103.0168    
    397900   302.51588      609.25094      30070.215      0.99484732    -8140.4023    
    398000   293.00949     -455.56548      30070.215      0.99484732    -8218.7528    
    398100   296.81612      195.05317      30070.215      0.99484732    -8212.9678    
    398200   302.14455      1.4606002      30070.215      0.99484732    -8193.9721    
    398300   301.12438     -522.37874      30070.215      0.99484732    -8179.3572    
    398400   298.06797     -295.83288      30070.215      0.99484732    -8170.6392    
    398500   310.74461     -535.78516      30070.215      0.99484732    -8098.8178    
    398600   312.49247     -177.27579      30070.215      0.99484732    -8150.3796    
    398700   295.53403     -249.05982      30070.215      0.99484732    -8214.2688    
    398800   295.5365      -765.05859      30070.215      0.99484732    -8208.1199    
    398900   299.90247     -74.017579      30070.215      0.99484732    -8182.5828    
    399000   300.54892      227.20233      30070.215      0.99484732    -8156.3124    
    399100   311.15375      227.08771      30070.215      0.99484732    -8198.9634    
    399200   296.47398     -283.46007      30070.215      0.99484732    -8276.6109    
    399300   298.33259     -409.10228      30070.215      0.99484732    -8254.6362    
    399400   302.73909      136.06185      30070.215      0.99484732    -8200.4605    
    399500   303.69362      209.57093      30070.215      0.99484732    -8171.7979    
    399600   303.70215      480.17884      30070.215      0.99484732    -8192.2516    
    399700   293.64395     -855.89728      30070.215      0.99484732    -8283.1108    
    399800   302.86411      227.55199      30070.215      0.99484732    -8293.442     
    399900   300.56073     -336.30304      30070.215      0.99484732    -8295.7715    
    400000   290.20087      340.39026      30070.215      0.99484732    -8261.7929    
    400100   304.7954       254.77518      30070.215      0.99484732    -8171.5057    
    400200   310.06355     -362.6602       30070.215      0.99484732    -8158.5483    
    400300   312.92134     -226.71389      30070.215      0.99484732    -8191.1581    
    400400   302.17746     -305.30487      30070.215      0.99484732    -8262.052     
    400500   292.03827      215.86421      30070.215      0.99484732    -8285.445     
    400600   296.38099     -323.31378      30070.215      0.99484732    -8267.8204    
    400700   308.78632      94.213249      30070.215      0.99484732    -8229.737     
    400800   305.58339      1106.1415      30070.215      0.99484732    -8174.7459    
    400900   310.32789      580.33594      30070.215      0.99484732    -8107.5969    
    401000   309.34106     -342.42718      30070.215      0.99484732    -8151.0842    
    401100   302.34177     -368.08245      30070.215      0.99484732    -8190.4227    
    401200   301.03897      77.730299      30070.215      0.99484732    -8214.2841    
    401300   300.89974     -14.051242      30070.215      0.99484732    -8241.7221    
    401400   290.80883      524.77798      30070.215      0.99484732    -8255.6       
    401500   304.63526      248.20619      30070.215      0.99484732    -8231.8083    
    401600   307.66282     -309.63496      30070.215      0.99484732    -8183.0417    
    401700   301.82448      23.950478      30070.215      0.99484732    -8160.9307    
    401800   299.27742      214.641        30070.215      0.99484732    -8178.9537    
    401900   296.06339     -60.854402      30070.215      0.99484732    -8237.5515    
    402000   295.28103     -445.32501      30070.215      0.99484732    -8291.6573    
    402100   293.79541      644.15715      30070.215      0.99484732    -8309.2727    
    402200   300.518        414.05545      30070.215      0.99484732    -8307.1157    
    402300   293.27285      227.80226      30070.215      0.99484732    -8300.3482    
    402400   304.01485      572.85741      30070.215      0.99484732    -8214.4028    
    402500   305.63418      560.89065      30070.215      0.99484732    -8200.8655    
    402600   302.29718     -253.20451      30070.215      0.99484732    -8276.5357    
    402700   290.89645     -191.45047      30070.215      0.99484732    -8312.8468    
    402800   298.66025      370.03359      30070.215      0.99484732    -8330.2289    
    402900   290.59133     -155.4575       30070.215      0.99484732    -8373.5633    
    403000   297.00043     -646.99959      30070.215      0.99484732    -8432.2172    
    403100   302.05082     -118.65412      30070.215      0.99484732    -8379.7335    
    403200   302.3245      -458.28008      30070.215      0.99484732    -8314.2406    
    403300   301.24678      126.02438      30070.215      0.99484732    -8290.8525    
    403400   304.16638      577.37005      30070.215      0.99484732    -8265.1852    
    403500   292.00844      210.99986      30070.215      0.99484732    -8314.1457    
    403600   291.10939      393.8863       30070.215      0.99484732    -8318.5423    
    403700   297.95408      81.062708      30070.215      0.99484732    -8220.4766    
    403800   296.89573      216.8892       30070.215      0.99484732    -8185.7706    
    403900   303.77938     -68.124596      30070.215      0.99484732    -8202.2061    
    404000   298.28119      60.687759      30070.215      0.99484732    -8251.0332    
    404100   302.0025       1053.6982      30070.215      0.99484732    -8311.2119    
    404200   291.17627     -442.52101      30070.215      0.99484732    -8342.0862    
    404300   295.79133     -82.685626      30070.215      0.99484732    -8309.5541    
    404400   297.60314     -238.10543      30070.215      0.99484732    -8303.126     
    404500   301.56648      87.961268      30070.215      0.99484732    -8308.4735    
    404600   298.67584     -466.90816      30070.215      0.99484732    -8321.6165    
    404700   291.63297     -394.90529      30070.215      0.99484732    -8335.9906    
    404800   296.93421     -274.56861      30070.215      0.99484732    -8289.1563    
    404900   301.57957      70.508447      30070.215      0.99484732    -8229.5528    
    405000   301.31069      144.84732      30070.215      0.99484732    -8205.5817    
    405100   305.29695     -14.84171       30070.215      0.99484732    -8230.8044    
    405200   297.20397      306.12192      30070.215      0.99484732    -8332.935     
    405300   295.94177     -43.360189      30070.215      0.99484732    -8349.0636    
    405400   299.74969      615.75466      30070.215      0.99484732    -8308.6365    
    405500   297.50653      547.50765      30070.215      0.99484732    -8274.1736    
    405600   301.49376      646.3152       30070.215      0.99484732    -8247.3961    
    405700   301.84447      366.84457      30070.215      0.99484732    -8180.5865    
    405800   317.48295      393.05932      30070.215      0.99484732    -8119.7874    
    405900   306.93065     -45.586901      30070.215      0.99484732    -8153.0632    
    406000   302.03985     -523.51299      30070.215      0.99484732    -8200.8742    
    406100   294.9277       619.82151      30070.215      0.99484732    -8232.3227    
    406200   294.84753      456.03513      30070.215      0.99484732    -8236.5524    
    406300   294.8907      -355.65432      30070.215      0.99484732    -8225.9816    
    406400   296.31593      368.99858      30070.215      0.99484732    -8171.4166    
    406500   311.57358      350.37492      30070.215      0.99484732    -8130.6745    
    406600   306.74412      90.596763      30070.215      0.99484732    -8169.8105    
    406700   304.32588     -135.0349       30070.215      0.99484732    -8236.6403    
    406800   303.46979     -457.79779      30070.215      0.99484732    -8230.2255    
    406900   297.29172     -0.85028832     30070.215      0.99484732    -8212.2439    
    407000   301.49119      304.68541      30070.215      0.99484732    -8227.5242    
    407100   296.65454     -190.4939       30070.215      0.99484732    -8291.2779    
    407200   296.77768     -123.3117       30070.215      0.99484732    -8324.1296    
    407300   299.83036     -271.19659      30070.215      0.99484732    -8320.4275    
    407400   299.31056     -334.30296      30070.215      0.99484732    -8238.0585    
    407500   299.5105       290.38828      30070.215      0.99484732    -8192.4428    
    407600   296.29237      191.91427      30070.215      0.99484732    -8210.2484    
    407700   298.98413      196.10169      30070.215      0.99484732    -8251.8977    
    407800   299.19559      140.36075      30070.215      0.99484732    -8308.5361    
    407900   297.12901     -848.08951      30070.215      0.99484732    -8296.6731    
    408000   299.77706      42.45493       30070.215      0.99484732    -8280.3892    
    408100   301.80586      344.50013      30070.215      0.99484732    -8276.0539    
    408200   300.32228      404.17998      30070.215      0.99484732    -8267.7324    
    408300   306.89419     -36.389522      30070.215      0.99484732    -8278.6078    
    408400   301.60313     -259.4457       30070.215      0.99484732    -8307.2291    
    408500   296.14913     -549.04836      30070.215      0.99484732    -8305.6101    
    408600   302.45776      135.23965      30070.215      0.99484732    -8212.1105    
    408700   306.07023     -309.53008      30070.215      0.99484732    -8168.8799    
    408800   302.97819     -252.17651      30070.215      0.99484732    -8208.355     
    408900   300.37085     -382.89984      30070.215      0.99484732    -8271.4255    
    409000   297.12515     -9.3132513      30070.215      0.99484732    -8290.8661    
    409100   295.53977      44.406717      30070.215      0.99484732    -8280.7569    
    409200   302.18863      128.55058      30070.215      0.99484732    -8207.6084    
    409300   309.08685      500.27124      30070.215      0.99484732    -8174.556     
    409400   300.38255      453.4949       30070.215      0.99484732    -8219.2241    
    409500   295.52159      276.63832      30070.215      0.99484732    -8251.8385    
    409600   304.69919      456.4894       30070.215      0.99484732    -8250.9899    
    409700   296.88265      1122.5531      30070.215      0.99484732    -8253.3012    
    409800   300.98552     -93.077158      30070.215      0.99484732    -8294.8683    
    409900   292.65097     -312.66508      30070.215      0.99484732    -8369.6334    
    410000   300.23959     -283.28944      30070.215      0.99484732    -8337.1733    
    410100   291.00218      151.09068      30070.215      0.99484732    -8290.8352    
    410200   297.98514      188.50287      30070.215      0.99484732    -8240.4176    
    410300   304.46458      34.308744      30070.215      0.99484732    -8191.8995    
    410400   301.22971      762.57084      30070.215      0.99484732    -8209.2793    
    410500   300.31496      246.12653      30070.215      0.99484732    -8270.7496    
    410600   300.71709      434.94989      30070.215      0.99484732    -8275.7934    
    410700   302.7427       451.68695      30070.215      0.99484732    -8247.1958    
    410800   304.89112      650.36925      30070.215      0.99484732    -8214.3808    
    410900   303.03869      401.56593      30070.215      0.99484732    -8252.5628    
    411000   296.96842     -426.54245      30070.215      0.99484732    -8322.5563    
    411100   293.19961     -106.10058      30070.215      0.99484732    -8316.0855    
    411200   299.47482      407.64517      30070.215      0.99484732    -8285.447     
    411300   300.10578      334.84215      30070.215      0.99484732    -8260.8143    
    411400   299.70571      153.96529      30070.215      0.99484732    -8270.0854    
    411500   292.4334      -23.671242      30070.215      0.99484732    -8332.1809    
    411600   293.86859     -450.38881      30070.215      0.99484732    -8357.5606    
    411700   305.3455       120.21179      30070.215      0.99484732    -8315.1517    
    411800   304.21409      791.3316       30070.215      0.99484732    -8309.6454    
    411900   287.06463      19.448163      30070.215      0.99484732    -8348.6313    
    412000   302.0728       15.540866      30070.215      0.99484732    -8323.8912    
    412100   304.00841      305.56695      30070.215      0.99484732    -8272.9517    
    412200   299.86831      272.53355      30070.215      0.99484732    -8221.7391    
    412300   309.43599      107.00241      30070.215      0.99484732    -8222.7954    
    412400   303.30143     -136.06467      30070.215      0.99484732    -8275.9875    
    412500   300.09341      144.70632      30070.215      0.99484732    -8281.3719    
    412600   305.79074      160.54203      30070.215      0.99484732    -8262.3149    
    412700   298.79245      142.04475      30070.215      0.99484732    -8268.8018    
    412800   297.04379     -9.5439093      30070.215      0.99484732    -8316.474     
    412900   291.36966      683.66904      30070.215      0.99484732    -8353.83      
    413000   291.69392     -207.37438      30070.215      0.99484732    -8390.1486    
    413100   294.20403      667.33871      30070.215      0.99484732    -8335.6666    
    413200   305.72956     -450.05199      30070.215      0.99484732    -8267.5823    
    413300   303.98196      62.812336      30070.215      0.99484732    -8252.8148    
    413400   298.55482      350.76277      30070.215      0.99484732    -8264.8887    
    413500   293.76216     -123.97866      30070.215      0.99484732    -8313.1349    
    413600   296.25566     -374.82508      30070.215      0.99484732    -8321.1686    
    413700   299.65366      171.38574      30070.215      0.99484732    -8233.7835    
    413800   303.03404      265.85527      30070.215      0.99484732    -8203.9735    
    413900   304.08795     -56.846836      30070.215      0.99484732    -8229.8535    
    414000   295.86742      361.13108      30070.215      0.99484732    -8283.2237    
    414100   298.62528     -434.59562      30070.215      0.99484732    -8269.8842    
    414200   307.19196      349.97622      30070.215      0.99484732    -8165.1714    
    414300   305.79753      283.9932       30070.215      0.99484732    -8165.5596    
    414400   303.5585      -152.38891      30070.215      0.99484732    -8216.0415    
    414500   296.2992      -849.21182      30070.215      0.99484732    -8246.9646    
    414600   300.0508       162.90944      30070.215      0.99484732    -8235.3223    
    414700   296.62296     -82.781892      30070.215      0.99484732    -8261.9248    
    414800   294.44767     -269.35587      30070.215      0.99484732    -8350.0765    
    414900   291.43902      184.60084      30070.215      0.99484732    -8344.0818    
    415000   295.53843      26.696188      30070.215      0.99484732    -8282.4525    
    415100   304.15847     -112.72451      30070.215      0.99484732    -8257.324     
    415200   304.92447     -75.615739      30070.215      0.99484732    -8245.5083    
    415300   295.22156      13.289952      30070.215      0.99484732    -8231.278     
    415400   303.54889      223.93481      30070.215      0.99484732    -8236.9683    
    415500   294.92988      61.868381      30070.215      0.99484732    -8314.7288    
    415600   293.47577     -684.28125      30070.215      0.99484732    -8319.2893    
    415700   306.7556       150.69956      30070.215      0.99484732    -8259.3679    
    415800   307.12021      590.44692      30070.215      0.99484732    -8231.4784    
    415900   300.35524     -51.912555      30070.215      0.99484732    -8254.4389    
    416000   304.75319     -449.18715      30070.215      0.99484732    -8263.2899    
    416100   302.3954       240.54085      30070.215      0.99484732    -8219.0291    
    416200   310.27336     -193.29086      30070.215      0.99484732    -8147.3004    
    416300   302.60332     -406.78967      30070.215      0.99484732    -8155.517     
    416400   299.40538      143.2838       30070.215      0.99484732    -8217.109     
    416500   308.47808     -130.30314      30070.215      0.99484732    -8274.8979    
    416600   296.74717      659.61432      30070.215      0.99484732    -8320.6258    
    416700   296.78585      107.59048      30070.215      0.99484732    -8343.7477    
    416800   296.20301      344.3666       30070.215      0.99484732    -8361.6884    
    416900   299.54215      661.99685      30070.215      0.99484732    -8355.6886    
    417000   303.67736     -229.56175      30070.215      0.99484732    -8316.4715    
    417100   299.91653     -318.67811      30070.215      0.99484732    -8289.1719    
    417200   300.19427      235.02107      30070.215      0.99484732    -8233.2941    
    417300   303.37216      580.0136       30070.215      0.99484732    -8194.3194    
    417400   312.69407     -277.29655      30070.215      0.99484732    -8206.7636    
    417500   299.23313     -246.49108      30070.215      0.99484732    -8305.6643    
    417600   296.26305      175.015        30070.215      0.99484732    -8332.0078    
    417700   297.3324      -418.73148      30070.215      0.99484732    -8352.7532    
    417800   298.18959      116.07741      30070.215      0.99484732    -8335.096     
    417900   301.11695      209.76794      30070.215      0.99484732    -8259.4394    
    418000   301.36674      455.99384      30070.215      0.99484732    -8249.0759    
    418100   301.83515     -58.557043      30070.215      0.99484732    -8282.5664    
    418200   301.81262     -107.76679      30070.215      0.99484732    -8301.1828    
    418300   303.53203     -223.55889      30070.215      0.99484732    -8311.1726    
    418400   296.84736      120.55611      30070.215      0.99484732    -8322.3457    
    418500   288.55927      27.535778      30070.215      0.99484732    -8325.1453    
    418600   301.45054      91.614809      30070.215      0.99484732    -8237.7429    
    418700   306.66116      656.62375      30070.215      0.99484732    -8216.6808    
    418800   297.94982      721.27508      30070.215      0.99484732    -8245.5759    
    418900   297.20092      383.3233       30070.215      0.99484732    -8273.382     
    419000   299.35385      277.19099      30070.215      0.99484732    -8351.2344    
    419100   300.99072     -510.82213      30070.215      0.99484732    -8382.0801    
    419200   298.62747     -371.92056      30070.215      0.99484732    -8358.9634    
    419300   299.98555      391.68099      30070.215      0.99484732    -8327.0879    
    419400   303.92245     -64.561512      30070.215      0.99484732    -8300.5814    
    419500   311.17727     -611.89872      30070.215      0.99484732    -8302.1527    
    419600   298.93599      12.434942      30070.215      0.99484732    -8323.7949    
    419700   298.84346      369.38244      30070.215      0.99484732    -8310.0689    
    419800   301.39996     -286.29592      30070.215      0.99484732    -8278.6174    
    419900   303.27501      52.650737      30070.215      0.99484732    -8261.3445    
    420000   308.97016      476.06729      30070.215      0.99484732    -8197.8132    
    420100   303.08324      479.01646      30070.215      0.99484732    -8197.6086    
    420200   306.29247      454.4737       30070.215      0.99484732    -8260.1019    
    420300   297.9233       242.21168      30070.215      0.99484732    -8326.5537    
    420400   298.75615      114.19798      30070.215      0.99484732    -8340.6656    
    420500   290.08299      211.91961      30070.215      0.99484732    -8295.2774    
    420600   301.11673      491.75558      30070.215      0.99484732    -8235.2501    
    420700   303.62537     -37.713745      30070.215      0.99484732    -8242.0193    
    420800   298.75542      73.967248      30070.215      0.99484732    -8262.5685    
    420900   303.82947      220.57641      30070.215      0.99484732    -8292.38      
    421000   298.78906     -413.19491      30070.215      0.99484732    -8371.3257    
    421100   292.02131     -63.761606      30070.215      0.99484732    -8372.6858    
    421200   296.8209       80.91937       30070.215      0.99484732    -8304.6014    
    421300   304.14644     -38.783655      30070.215      0.99484732    -8275.112     
    421400   306.97539      431.39511      30070.215      0.99484732    -8290.2405    
    421500   284.28316      8.4923652      30070.215      0.99484732    -8350.3092    
    421600   301.94696     -537.20825      30070.215      0.99484732    -8317.8501    
    421700   300.18552      323.45866      30070.215      0.99484732    -8275.4579    
    421800   296.78419      303.8714       30070.215      0.99484732    -8287.6193    
    421900   293.34682     -392.06109      30070.215      0.99484732    -8295.7484    
    422000   308.98229      84.441363      30070.215      0.99484732    -8241.955     
    422100   301.37247     -490.08871      30070.215      0.99484732    -8224.7415    
    422200   298.54485      386.83108      30070.215      0.99484732    -8251.6597    
    422300   297.85313      639.60034      30070.215      0.99484732    -8336.5918    
    422400   292.99627      114.00521      30070.215      0.99484732    -8362.5216    
    422500   303.40129      696.00263      30070.215      0.99484732    -8312.2651    
    422600   291.81101     -109.828        30070.215      0.99484732    -8286.0226    
    422700   295.5653      -518.96134      30070.215      0.99484732    -8239.0968    
    422800   300.50427      47.176702      30070.215      0.99484732    -8160.4953    
    422900   309.53248      64.50356       30070.215      0.99484732    -8168.0091    
    423000   302.35832     -161.44323      30070.215      0.99484732    -8223.28      
    423100   295.18327     -388.89993      30070.215      0.99484732    -8256.149     
    423200   296.4064      -169.55545      30070.215      0.99484732    -8237.2873    
    423300   308.29256      284.96954      30070.215      0.99484732    -8147.9638    
    423400   305.61712      121.35091      30070.215      0.99484732    -8159.072     
    423500   293.63766     -97.058202      30070.215      0.99484732    -8192.4263    
    423600   299.83539     -117.60036      30070.215      0.99484732    -8212.807     
    423700   307.47389      9.8938803      30070.215      0.99484732    -8239.7036    
    423800   291.06164     -90.245275      30070.215      0.99484732    -8316.6327    
    423900   294.0972      -449.32394      30070.215      0.99484732    -8344.6753    
    424000   298.56168     -615.94842      30070.215      0.99484732    -8301.4092    
    424100   302.33546      162.17068      30070.215      0.99484732    -8257.5543    
    424200   296.67736      50.24976       30070.215      0.99484732    -8233.5157    
    424300   308.35012      439.50291      30070.215      0.99484732    -8207.8269    
    424400   311.28002      497.38255      30070.215      0.99484732    -8186.5416    
    424500   304.67074     -348.39538      30070.215      0.99484732    -8174.7723    
    424600   310.05365      489.40534      30070.215      0.99484732    -8180.7554    
    424700   297.77153      102.18097      30070.215      0.99484732    -8251.4818    
    424800   293.0667       235.035        30070.215      0.99484732    -8280.9444    
    424900   297.32211      225.13764      30070.215      0.99484732    -8263.2014    
    425000   301.79601      88.881669      30070.215      0.99484732    -8178.372     
    425100   302.02387     -281.12082      30070.215      0.99484732    -8159.1696    
    425200   303.22008      135.74529      30070.215      0.99484732    -8195.3723    
    425300   298.53168     -142.27961      30070.215      0.99484732    -8240.3488    
    425400   311.12032     -900.89688      30070.215      0.99484732    -8266.4287    
    425500   295.03572     -451.94471      30070.215      0.99484732    -8334.8664    
    425600   299.53744      431.35477      30070.215      0.99484732    -8334.6959    
    425700   304.15524      44.629199      30070.215      0.99484732    -8233.5254    
    425800   311.00464      362.86424      30070.215      0.99484732    -8214.1241    
    425900   299.90509     -261.85189      30070.215      0.99484732    -8273.5361    
    426000   295.1273       151.87583      30070.215      0.99484732    -8310.9818    
    426100   300.68085     -588.22341      30070.215      0.99484732    -8298.6675    
    426200   298.647       -154.67673      30070.215      0.99484732    -8255.8098    
    426300   303.45947      206.20349      30070.215      0.99484732    -8245.9772    
    426400   294.73258      65.012571      30070.215      0.99484732    -8347.5069    
    426500   287.19156     -299.73994      30070.215      0.99484732    -8359.2624    
    426600   300.28265      484.33989      30070.215      0.99484732    -8293.278     
    426700   296.15762      699.12376      30070.215      0.99484732    -8254.5602    
    426800   300.34161      333.7176       30070.215      0.99484732    -8240.2297    
    426900   292.45055      251.1123       30070.215      0.99484732    -8263.775     
    427000   293.62126     -462.42208      30070.215      0.99484732    -8319.5626    
    427100   292.19748      168.26111      30070.215      0.99484732    -8301.2218    
    427200   301.84604      644.35931      30070.215      0.99484732    -8228.5327    
    427300   300.00688     -385.68515      30070.215      0.99484732    -8222.442     
    427400   305.19793     -468.47831      30070.215      0.99484732    -8215.5065    
    427500   308.15187     -398.56689      30070.215      0.99484732    -8175.9615    
    427600   308.11846      594.83556      30070.215      0.99484732    -8122.7973    
    427700   294.61046      367.24724      30070.215      0.99484732    -8178.8155    
    427800   295.25118     -152.472        30070.215      0.99484732    -8227.6429    
    427900   305.68178     -200.46366      30070.215      0.99484732    -8232.2761    
    428000   301.36061     -221.57607      30070.215      0.99484732    -8240.1173    
    428100   298.898       -402.716        30070.215      0.99484732    -8245.3893    
    428200   296.81324     -151.46291      30070.215      0.99484732    -8245.7793    
    428300   299.59038     -265.028        30070.215      0.99484732    -8236.3943    
    428400   300.47436      58.43814       30070.215      0.99484732    -8203.0994    
    428500   306.10221     -523.07948      30070.215      0.99484732    -8187.8395    
    428600   300.50359      228.63841      30070.215      0.99484732    -8191.0577    
    428700   305.82869     -57.14485       30070.215      0.99484732    -8216.3257    
    428800   291.00288      220.64983      30070.215      0.99484732    -8262.6735    
    428900   298.96967      189.61702      30070.215      0.99484732    -8297.5245    
    429000   295.87922      773.58635      30070.215      0.99484732    -8342.4289    
    429100   293.56639     -146.38324      30070.215      0.99484732    -8366.3168    
    429200   290.30252      735.81743      30070.215      0.99484732    -8319.4142    
    429300   307.61493      464.39691      30070.215      0.99484732    -8251.3312    
    429400   299.56932     -261.20781      30070.215      0.99484732    -8258.6944    
    429500   297.33959     -98.743368      30070.215      0.99484732    -8278.1095    
    429600   307.70404      104.75513      30070.215      0.99484732    -8293.273     
    429700   293.97124      448.96138      30070.215      0.99484732    -8375.6992    
    429800   296.3067      -598.14181      30070.215      0.99484732    -8378.4517    
    429900   301.29284      863.10358      30070.215      0.99484732    -8325.4421    
    430000   297.9222       604.26106      30070.215      0.99484732    -8317.9361    
    430100   296.70279      191.09329      30070.215      0.99484732    -8319.3985    
    430200   301.41979     -509.42651      30070.215      0.99484732    -8236.0776    
    430300   299.07082      5.476752       30070.215      0.99484732    -8175.6119    
    430400   303.4204      -389.77451      30070.215      0.99484732    -8198.0041    
    430500   290.31843     -768.7751       30070.215      0.99484732    -8255.2461    
    430600   295.52988     -244.94191      30070.215      0.99484732    -8268.3235    
    430700   294.91738      330.02964      30070.215      0.99484732    -8269.0759    
    430800   305.69281     -119.00941      30070.215      0.99484732    -8226.7546    
    430900   303.32254      0.53819136     30070.215      0.99484732    -8186.4009    
    431000   301.4064      -1.7150898      30070.215      0.99484732    -8178.3074    
    431100   308.82183      65.495339      30070.215      0.99484732    -8136.3312    
    431200   310.12135     -148.40656      30070.215      0.99484732    -8116.6155    
    431300   296.31851      144.0477       30070.215      0.99484732    -8187.0731    
    431400   305.82567     -285.29023      30070.215      0.99484732    -8244.3204    
    431500   296.74243     -227.46916      30070.215      0.99484732    -8288.4604    
    431600   296.57575     -342.78889      30070.215      0.99484732    -8289.5641    
    431700   300.50208      9.0719387      30070.215      0.99484732    -8234.4151    
    431800   300.76648     -878.79106      30070.215      0.99484732    -8165.9949    
    431900   304.96746     -209.12713      30070.215      0.99484732    -8160.5342    
    432000   301.02044     -174.30669      30070.215      0.99484732    -8194.6933    
    432100   297.90996     -667.68532      30070.215      0.99484732    -8236.5824    
    432200   304.24021     -430.65142      30070.215      0.99484732    -8244.3946    
    432300   300.45731     -79.348717      30070.215      0.99484732    -8251.106     
    432400   300.11846      166.98099      30070.215      0.99484732    -8243.511     
    432500   303.34896     -559.33873      30070.215      0.99484732    -8229.7634    
    432600   298.54705      151.67765      30070.215      0.99484732    -8211.6493    
    432700   305.51889     -415.06902      30070.215      0.99484732    -8162.2169    
    432800   299.4311       40.025768      30070.215      0.99484732    -8113.9137    
    432900   306.60504     -172.42112      30070.215      0.99484732    -8063.6641    
    433000   313.39678     -248.73362      30070.215      0.99484732    -8035.4255    
    433100   305.20174      159.82523      30070.215      0.99484732    -8121.8001    
    433200   306.55845      68.201988      30070.215      0.99484732    -8203.101     
    433300   293.63719      185.15306      30070.215      0.99484732    -8257.7717    
    433400   300.56588      73.192388      30070.215      0.99484732    -8283.3964    
    433500   294.21293      25.033184      30070.215      0.99484732    -8309.3031    
    433600   297.77396      44.080945      30070.215      0.99484732    -8319.9842    
    433700   293.92621      487.00333      30070.215      0.99484732    -8291.3188    
    433800   297.67287      258.2828       30070.215      0.99484732    -8222.6169    
    433900   307.2999       401.92683      30070.215      0.99484732    -8195.4921    
    434000   296.93537      192.4098       30070.215      0.99484732    -8223.1825    
    434100   302.19817      180.41156      30070.215      0.99484732    -8272.7991    
    434200   296.45784      229.05563      30070.215      0.99484732    -8344.6081    
    434300   293.15912      435.65523      30070.215      0.99484732    -8344.7962    
    434400   306.49366      449.47633      30070.215      0.99484732    -8294.9147    
    434500   303.50722      587.13299      30070.215      0.99484732    -8233.3903    
    434600   300.75169     -195.45978      30070.215      0.99484732    -8243.7249    
    434700   303.0822       309.49609      30070.215      0.99484732    -8227.8551    
    434800   301.71735      316.38601      30070.215      0.99484732    -8251.3191    
    434900   290.59147      342.09015      30070.215      0.99484732    -8300.6193    
    435000   306.01837      167.41347      30070.215      0.99484732    -8237.5705    
    435100   304.80394      240.07952      30070.215      0.99484732    -8186.3356    
    435200   305.26517      4.6002411      30070.215      0.99484732    -8232.3042    
    435300   300.46332      500.34457      30070.215      0.99484732    -8286.4767    
    435400   295.39168     -138.22928      30070.215      0.99484732    -8309.8504    
    435500   299.27601     -77.527143      30070.215      0.99484732    -8262.205     
    435600   305.6848       211.83215      30070.215      0.99484732    -8206.7599    
    435700   294.40994      818.16468      30070.215      0.99484732    -8223.8932    
    435800   296.96406      66.249763      30070.215      0.99484732    -8236.8179    
    435900   295.47655     -43.790936      30070.215      0.99484732    -8225.2133    
    436000   304.61342      464.11659      30070.215      0.99484732    -8198.3534    
    436100   308.25625      87.840367      30070.215      0.99484732    -8224.4182    
    436200   292.80339     -482.65714      30070.215      0.99484732    -8316.2076    
    436300   296.16814     -215.57663      30070.215      0.99484732    -8275.2104    
    436400   304.3821       66.739551      30070.215      0.99484732    -8221.6028    
    436500   296.1578      -54.359424      30070.215      0.99484732    -8207.704     
    436600   298.20896      43.102896      30070.215      0.99484732    -8186.4556    
    436700   305.44358     -62.722384      30070.215      0.99484732    -8173.8478    
    436800   296.28945     -136.84073      30070.215      0.99484732    -8210.1251    
    436900   293.61977     -267.23735      30070.215      0.99484732    -8261.4229    
    437000   294.08063      58.111224      30070.215      0.99484732    -8244.9209    
    437100   306.85433     -645.69398      30070.215      0.99484732    -8187.0264    
    437200   308.25446      33.745877      30070.215      0.99484732    -8132.0656    
    437300   307.59474      1.758126       30070.215      0.99484732    -8145.6853    
    437400   288.08315      226.94812      30070.215      0.99484732    -8228.5983    
    437500   298.57486     -377.61503      30070.215      0.99484732    -8243.785     
    437600   305.48399     -340.81831      30070.215      0.99484732    -8212.4484    
    437700   303.76385     -31.367362      30070.215      0.99484732    -8173.9483    
    437800   304.32434      228.63019      30070.215      0.99484732    -8190.1141    
    437900   294.9185       472.65101      30070.215      0.99484732    -8274.1091    
    438000   300.44269      571.35464      30070.215      0.99484732    -8282.6254    
    438100   301.41627      446.1378       30070.215      0.99484732    -8267.8363    
    438200   304.27721      722.22506      30070.215      0.99484732    -8235.9727    
    438300   296.17937     -220.31627      30070.215      0.99484732    -8186.9825    
    438400   305.83924     -162.35549      30070.215      0.99484732    -8144.9775    
    438500   313.38607      408.54134      30070.215      0.99484732    -8163.0552    
    438600   295.1107       114.62551      30070.215      0.99484732    -8252.2128    
    438700   300.33635      358.92663      30070.215      0.99484732    -8230.0943    
    438800   300.6669      -124.25623      30070.215      0.99484732    -8195.7536    
    438900   299.76832      71.580125      30070.215      0.99484732    -8173.528     
    439000   303.76688     -294.79063      30070.215      0.99484732    -8185.3553    
    439100   299.60701     -279.79451      30070.215      0.99484732    -8246.9864    
    439200   294.98906     -560.3459       30070.215      0.99484732    -8276.9426    
    439300   302.27055     -489.3587       30070.215      0.99484732    -8286.4329    
    439400   301.00179     -64.348093      30070.215      0.99484732    -8260.1896    
    439500   310.11648      151.56113      30070.215      0.99484732    -8203.8258    
    439600   312.61337      144.8518       30070.215      0.99484732    -8194.3615    
    439700   300.0873      -562.9339       30070.215      0.99484732    -8264.0674    
    439800   301.42551     -605.29759      30070.215      0.99484732    -8291.765     
    439900   299.82591     -239.77076      30070.215      0.99484732    -8268.6743    
    440000   302.77985      91.439625      30070.215      0.99484732    -8254.2886    
    440100   301.44451     -496.35213      30070.215      0.99484732    -8251.7638    
    440200   305.07744      82.745787      30070.215      0.99484732    -8225.2988    
    440300   297.85134      77.124545      30070.215      0.99484732    -8181.9666    
    440400   308.72588     -370.29931      30070.215      0.99484732    -8149.9418    
    440500   302.85991      437.31529      30070.215      0.99484732    -8192.1644    
    440600   299.87451      93.201379      30070.215      0.99484732    -8262.4853    
    440700   297.98039      10.741798      30070.215      0.99484732    -8274.0386    
    440800   304.21674     -33.557444      30070.215      0.99484732    -8273.9702    
    440900   298.46559     -494.96704      30070.215      0.99484732    -8343.191     
    441000   291.55139      12.99819       30070.215      0.99484732    -8384.8521    
    441100   305.99347     -119.37821      30070.215      0.99484732    -8353.7215    
    441200   291.73254      140.44961      30070.215      0.99484732    -8328.3181    
    441300   302.85576     -446.07154      30070.215      0.99484732    -8288.0004    
    441400   302.73526     -364.46848      30070.215      0.99484732    -8244.7852    
    441500   303.21989     -118.25962      30070.215      0.99484732    -8211.5443    
    441600   309.36261      665.00122      30070.215      0.99484732    -8127.1164    
    441700   304.97226      806.41308      30070.215      0.99484732    -8167.189     
    441800   299.66656     -340.49791      30070.215      0.99484732    -8241.2547    
    441900   293.28178     -54.886661      30070.215      0.99484732    -8271.1191    
    442000   299.37227     -429.65544      30070.215      0.99484732    -8270.1003    
    442100   304.5222       236.02931      30070.215      0.99484732    -8233.8582    
    442200   305.19458      320.24219      30070.215      0.99484732    -8180.4121    
    442300   307.14316      405.6676       30070.215      0.99484732    -8151.4388    
    442400   304.41475     -210.56095      30070.215      0.99484732    -8226.476     
    442500   300.07757      298.31825      30070.215      0.99484732    -8282.2276    
    442600   301.27623      307.60595      30070.215      0.99484732    -8305.0998    
    442700   300.76399     -218.28224      30070.215      0.99484732    -8318.3527    
    442800   297.94909     -39.806962      30070.215      0.99484732    -8320.2874    
    442900   297.91475     -30.103816      30070.215      0.99484732    -8344.338     
    443000   298.07967     -544.23062      30070.215      0.99484732    -8333.6396    
    443100   299.93429     -366.41158      30070.215      0.99484732    -8265.9406    
    443200   302.25789     -415.38546      30070.215      0.99484732    -8247.5147    
    443300   304.18494     -101.94835      30070.215      0.99484732    -8278.9658    
    443400   289.08087     -255.99036      30070.215      0.99484732    -8358.4083    
    443500   290.05525      10.155686      30070.215      0.99484732    -8341.5716    
    443600   299.82326     -300.80555      30070.215      0.99484732    -8305.4324    
    443700   298.85579     -41.045788      30070.215      0.99484732    -8264.4521    
    443800   308.41778     -157.9277       30070.215      0.99484732    -8223.6273    
    443900   299.26076     -352.62827      30070.215      0.99484732    -8223.2611    
    444000   294.2504      -27.739848      30070.215      0.99484732    -8224.542     
    444100   304.42422      173.93605      30070.215      0.99484732    -8238.6698    
    444200   286.74927      378.34308      30070.215      0.99484732    -8280.868     
    444300   298.26368      15.041172      30070.215      0.99484732    -8278.2592    
    444400   306.16224      73.095193      30070.215      0.99484732    -8198.4916    
    444500   310.54626      125.67296      30070.215      0.99484732    -8189.9837    
    444600   290.32602     -193.19314      30070.215      0.99484732    -8249.2094    
    444700   288.84227      112.22842      30070.215      0.99484732    -8247.7909    
    444800   296.70539     -200.66154      30070.215      0.99484732    -8218.5731    
    444900   302.58356     -590.75412      30070.215      0.99484732    -8178.1379    
    445000   321.3599      -109.35051      30070.215      0.99484732    -8080.6116    
    445100   310.76049      209.43475      30070.215      0.99484732    -8058.0046    
    445200   300.2096      -267.79338      30070.215      0.99484732    -8130.6465    
    445300   309.94508     -394.08194      30070.215      0.99484732    -8184.8437    
    445400   299.10746     -139.87097      30070.215      0.99484732    -8242.8838    
    445500   297.24175     -458.68997      30070.215      0.99484732    -8277.0578    
    445600   291.80457     -243.4103       30070.215      0.99484732    -8300.406     
    445700   294.578        37.886317      30070.215      0.99484732    -8290.7388    
    445800   303.59577     -352.89222      30070.215      0.99484732    -8238.2836    
    445900   296.47817     -13.724258      30070.215      0.99484732    -8212.2457    
    446000   305.61221      358.91901      30070.215      0.99484732    -8210.4047    
    446100   296.91014      58.598385      30070.215      0.99484732    -8256.4177    
    446200   294.07427     -239.00579      30070.215      0.99484732    -8296.8263    
    446300   301.68245      22.692159      30070.215      0.99484732    -8262.467     
    446400   295.40433      478.61768      30070.215      0.99484732    -8193.8066    
    446500   309.08936     -241.77296      30070.215      0.99484732    -8183.3244    
    446600   300.27643     -100.84328      30070.215      0.99484732    -8213.0243    
    446700   290.55769      1.8363031      30070.215      0.99484732    -8311.7634    
    446800   292.23149     -84.313924      30070.215      0.99484732    -8336.0157    
    446900   294.98961     -163.40856      30070.215      0.99484732    -8307.1256    
    447000   302.18664      309.63093      30070.215      0.99484732    -8252.6035    
    447100   302.32185      106.25894      30070.215      0.99484732    -8229.4619    
    447200   298.8365       274.00575      30070.215      0.99484732    -8239.0885    
    447300   298.38842      147.63117      30070.215      0.99484732    -8307.2453    
    447400   290.24615     -26.737214      30070.215      0.99484732    -8325.7894    
    447500   297.49629      553.63713      30070.215      0.99484732    -8267.8691    
    447600   303.06737      127.09041      30070.215      0.99484732    -8250.1675    
    447700   301.00776      109.48351      30070.215      0.99484732    -8287.3226    
    447800   291.1319       65.554145      30070.215      0.99484732    -8306.9991    
    447900   299.14564      478.15038      30070.215      0.99484732    -8280.8315    
    448000   305.08015      543.30891      30070.215      0.99484732    -8241.0951    
    448100   302.48882      338.54396      30070.215      0.99484732    -8263.5021    
    448200   288.38818     -70.494416      30070.215      0.99484732    -8346.3327    
    448300   299.14567      97.083947      30070.215      0.99484732    -8368.791     
    448400   287.9827      -83.619315      30070.215      0.99484732    -8334.895     
    448500   300.01067     -361.13385      30070.215      0.99484732    -8292.7732    
    448600   299.75521      155.28721      30070.215      0.99484732    -8272.8516    
    448700   302.03733     -426.18558      30070.215      0.99484732    -8269.4891    
    448800   292.81234     -506.08341      30070.215      0.99484732    -8314.8198    
    448900   295.83291      202.93038      30070.215      0.99484732    -8338.8834    
    449000   300.71173      840.80943      30070.215      0.99484732    -8296.5343    
    449100   308.57808      89.7572        30070.215      0.99484732    -8238.919     
    449200   300.48528      311.3061       30070.215      0.99484732    -8243.9893    
    449300   296.17379     -725.41852      30070.215      0.99484732    -8303.2374    
    449400   291.97706     -504.08551      30070.215      0.99484732    -8367.1736    
    449500   297.32906      44.922375      30070.215      0.99484732    -8341.4212    
    449600   304.06799     -313.4563       30070.215      0.99484732    -8303.6871    
    449700   293.82847     -20.661955      30070.215      0.99484732    -8309.5069    
    449800   305.90027     -409.17972      30070.215      0.99484732    -8315.2508    
    449900   297.83992     -601.50494      30070.215      0.99484732    -8329.1111    
    450000   290.9931      -590.29316      30070.215      0.99484732    -8300.5136    
    450100   302.64696     -303.22048      30070.215      0.99484732    -8244.4517    
    450200   308.79859     -244.08495      30070.215      0.99484732    -8245.9118    
    450300   295.31199     -116.68307      30070.215      0.99484732    -8286.8567    
    450400   294.41268      305.3839       30070.215      0.99484732    -8268.9573    
    450500   304.34099      493.1544       30070.215      0.99484732    -8205.5852    
    450600   300.20773      21.299698      30070.215      0.99484732    -8182.6253    
    450700   296.3325      -567.365        30070.215      0.99484732    -8258.3146    
    450800   293.27688     -590.86194      30070.215      0.99484732    -8308.3328    
    450900   303.75694     -286.97557      30070.215      0.99484732    -8271.0991    
    451000   304.41968     -490.74506      30070.215      0.99484732    -8239.0538    
    451100   305.7978      -115.10794      30070.215      0.99484732    -8233.0953    
    451200   294.34833     -335.47732      30070.215      0.99484732    -8296.9653    
    451300   295.7616       486.44938      30070.215      0.99484732    -8348.914     
    451400   298.66064      223.07183      30070.215      0.99484732    -8340.6645    
    451500   297.25876      358.89914      30070.215      0.99484732    -8277.6023    
    451600   298.93039     -304.59865      30070.215      0.99484732    -8218.2774    
    451700   302.89183     -527.21989      30070.215      0.99484732    -8203.9442    
    451800   297.35953     -78.914576      30070.215      0.99484732    -8201.9043    
    451900   308.17392      43.417147      30070.215      0.99484732    -8186.2609    
    452000   299.68984     -172.54931      30070.215      0.99484732    -8247.4599    
    452100   296.84432     -48.739417      30070.215      0.99484732    -8294.2376    
    452200   305.77426     -86.696739      30070.215      0.99484732    -8296.0924    
    452300   300.54701     -61.969337      30070.215      0.99484732    -8245.6287    
    452400   305.14906      418.5297       30070.215      0.99484732    -8170.0717    
    452500   305.45865      93.021246      30070.215      0.99484732    -8183.6107    
    452600   291.50983      386.93254      30070.215      0.99484732    -8218.8665    
    452700   297.37754     -42.596207      30070.215      0.99484732    -8231.1486    
    452800   302.3969      -166.88605      30070.215      0.99484732    -8227.2374    
    452900   308.32401     -631.63817      30070.215      0.99484732    -8196.746     
    453000   303.86167     -628.54384      30070.215      0.99484732    -8196.9123    
    453100   299.35051      193.94918      30070.215      0.99484732    -8234.7471    
    453200   297.45311      149.05636      30070.215      0.99484732    -8297.6784    
    453300   290.46796      28.898314      30070.215      0.99484732    -8331.1196    
    453400   302.2343       246.57984      30070.215      0.99484732    -8304.8435    
    453500   299.3799      -38.416199      30070.215      0.99484732    -8275.338     
    453600   295.01568      28.410276      30070.215      0.99484732    -8254.031     
    453700   297.82383      119.86979      30070.215      0.99484732    -8238.2217    
    453800   302.79395     -980.80164      30070.215      0.99484732    -8235.4942    
    453900   304.93134      182.32652      30070.215      0.99484732    -8215.3993    
    454000   303.50106     -2.3007949      30070.215      0.99484732    -8177.6634    
    454100   301.22491     -206.41497      30070.215      0.99484732    -8168.904     
    454200   297.37797     -811.77824      30070.215      0.99484732    -8198.8949    
    454300   305.64045     -183.77269      30070.215      0.99484732    -8262.7181    
    454400   293.51028     -452.65432      30070.215      0.99484732    -8295.2101    
    454500   299.79688     -368.29013      30070.215      0.99484732    -8244.4003    
    454600   301.27807      242.77278      30070.215      0.99484732    -8205.4122    
    454700   302.35514     -24.690387      30070.215      0.99484732    -8206.6649    
    454800   303.71944     -110.77617      30070.215      0.99484732    -8246.906     
    454900   292.34777      370.82948      30070.215      0.99484732    -8288.6878    
    455000   304.07207      404.0172       30070.215      0.99484732    -8223.0607    
    455100   302.71606      302.31211      30070.215      0.99484732    -8162.8316    
    455200   298.21217      479.49434      30070.215      0.99484732    -8176.9621    
    455300   303.00118      110.67398      30070.215      0.99484732    -8210.3851    
    455400   289.69403      186.18114      30070.215      0.99484732    -8283.6449    
    455500   295.11816     -335.393        30070.215      0.99484732    -8279.3959    
    455600   294.36757      318.74782      30070.215      0.99484732    -8238.164     
    455700   296.65212      436.5796       30070.215      0.99484732    -8224.0326    
    455800   302.50748      20.761741      30070.215      0.99484732    -8212.4454    
    455900   287.40506      174.10825      30070.215      0.99484732    -8218.6753    
    456000   301.1807      -200.04263      30070.215      0.99484732    -8158.8775    
    456100   299.41611      408.11176      30070.215      0.99484732    -8120.0841    
    456200   301.06294      395.80726      30070.215      0.99484732    -8154.3285    
    456300   293.92907      852.21634      30070.215      0.99484732    -8220.8968    
    456400   302.34765      86.898456      30070.215      0.99484732    -8242.1021    
    456500   299.49695      506.96084      30070.215      0.99484732    -8257.8551    
    456600   297.92116     -292.10202      30070.215      0.99484732    -8295.7035    
    456700   290.72768      556.78221      30070.215      0.99484732    -8308.6318    
    456800   298.87089      527.62009      30070.215      0.99484732    -8238.0642    
    456900   302.71545      425.2497       30070.215      0.99484732    -8189.5183    
    457000   303.54118     -44.454126      30070.215      0.99484732    -8181.2208    
    457100   303.88264     -238.83902      30070.215      0.99484732    -8203.2194    
    457200   285.42575     -124.57514      30070.215      0.99484732    -8279.233     
    457300   289.81095      166.65957      30070.215      0.99484732    -8235.3097    
    457400   294.67158     -250.15365      30070.215      0.99484732    -8183.4631    
    457500   306.48541      659.61312      30070.215      0.99484732    -8181.5068    
    457600   298.24966      286.46142      30070.215      0.99484732    -8233.233     
    457700   300.45985     -136.79498      30070.215      0.99484732    -8282.3587    
    457800   299.95191     -333.60913      30070.215      0.99484732    -8283.9121    
    457900   301.90897      118.26693      30070.215      0.99484732    -8270.1434    
    458000   303.49892      567.64634      30070.215      0.99484732    -8269.6104    
    458100   291.59556      84.477677      30070.215      0.99484732    -8291.2688    
    458200   288.87033      435.86197      30070.215      0.99484732    -8340.0187    
    458300   289.02598     -405.3781       30070.215      0.99484732    -8380.8004    
    458400   298.66773     -82.298137      30070.215      0.99484732    -8294.9183    
    458500   300.07038     -505.83941      30070.215      0.99484732    -8248.2298    
    458600   293.21493     -477.35118      30070.215      0.99484732    -8234.115     
    458700   301.06374     -182.53681      30070.215      0.99484732    -8171.2175    
    458800   294.95878     -247.44204      30070.215      0.99484732    -8168.3679    
    458900   303.47371     -76.073933      30070.215      0.99484732    -8188.106     
    459000   299.42739     -545.45815      30070.215      0.99484732    -8257.848     
    459100   293.40271     -559.42673      30070.215      0.99484732    -8299.5861    
    459200   299.75253      451.3904       30070.215      0.99484732    -8263.5228    
    459300   300.74412     -72.015645      30070.215      0.99484732    -8225.0472    
    459400   302.23136      104.34555      30070.215      0.99484732    -8199.7442    
    459500   304.9196       90.587515      30070.215      0.99484732    -8105.6765    
    459600   299.30623      116.78566      30070.215      0.99484732    -8128.9775    
    459700   301.96792     -243.06166      30070.215      0.99484732    -8197.8553    
    459800   302.40841     -135.40299      30070.215      0.99484732    -8213.9       
    459900   300.55303      228.6762       30070.215      0.99484732    -8224.26      
    460000   298.22331     -294.67095      30070.215      0.99484732    -8237.3029    
    460100   295.74203      17.231911      30070.215      0.99484732    -8254.5249    
    460200   293.47538      50.513407      30070.215      0.99484732    -8265.643     
    460300   294.02967      8.1917381      30070.215      0.99484732    -8234.0093    
    460400   306.04529      129.59545      30070.215      0.99484732    -8195.7628    
    460500   305.17662     -59.769071      30070.215      0.99484732    -8235.4063    
    460600   292.93376      188.65253      30070.215      0.99484732    -8319.0628    
    460700   293.89629      409.6862       30070.215      0.99484732    -8304.9349    
    460800   311.22497     -579.04856      30070.215      0.99484732    -8252.9986    
    460900   304.38515     -569.53666      30070.215      0.99484732    -8237.3203    
    461000   301.46699     -44.237304      30070.215      0.99484732    -8249.6138    
    461100   294.92484     -407.83871      30070.215      0.99484732    -8334.6529    
    461200   290.65043     -586.19348      30070.215      0.99484732    -8337.6441    
    461300   307.5639      -571.27802      30070.215      0.99484732    -8290.4811    
    461400   302.68202     -919.31825      30070.215      0.99484732    -8254.0291    
    461500   301.39029      133.40395      30070.215      0.99484732    -8232.8401    
    461600   303.13816      525.53169      30070.215      0.99484732    -8198.0592    
    461700   305.22225      774.65285      30070.215      0.99484732    -8185.7964    
    461800   305.41683      90.131727      30070.215      0.99484732    -8277.5133    
    461900   295.9503       67.756492      30070.215      0.99484732    -8308.7351    
    462000   305.39951     -541.6295       30070.215      0.99484732    -8280.7112    
    462100   294.61596      186.00392      30070.215      0.99484732    -8241.8834    
    462200   299.1695       132.86795      30070.215      0.99484732    -8191.1775    
    462300   308.34455     -372.99583      30070.215      0.99484732    -8158.1272    
    462400   303.33549      86.358768      30070.215      0.99484732    -8168.7719    
    462500   293.71591      143.08875      30070.215      0.99484732    -8216.8705    
    462600   299.43415     -286.78273      30070.215      0.99484732    -8211.303     
    462700   312.54067      145.01486      30070.215      0.99484732    -8178.405     
    462800   295.70454     -98.841687      30070.215      0.99484732    -8199.7418    
    462900   289.07385     -316.39075      30070.215      0.99484732    -8261.012     
    463000   302.05968      535.9806       30070.215      0.99484732    -8247.8666    
    463100   312.25642     -366.02655      30070.215      0.99484732    -8176.105     
    463200   306.90286      42.924724      30070.215      0.99484732    -8163.8052    
    463300   297.63401      4.5644349      30070.215      0.99484732    -8273.9593    
    463400   296.45169      59.740368      30070.215      0.99484732    -8295.1592    
    463500   306.23553      174.01741      30070.215      0.99484732    -8296.6849    
    463600   299.25962      378.05468      30070.215      0.99484732    -8324.7905    
    463700   285.82027     -894.95324      30070.215      0.99484732    -8333.3586    
    463800   299.99937     -184.47781      30070.215      0.99484732    -8243.9772    
    463900   299.82097      624.31381      30070.215      0.99484732    -8234.6079    
    464000   301.60165      873.2393       30070.215      0.99484732    -8264.4078    
    464100   297.73572     -237.33646      30070.215      0.99484732    -8322.3887    
    464200   299.15475     -141.77191      30070.215      0.99484732    -8325.2302    
    464300   300.24907      892.76485      30070.215      0.99484732    -8302.6756    
    464400   298.06837      619.23069      30070.215      0.99484732    -8274.7949    
    464500   306.45744      150.8478       30070.215      0.99484732    -8301.205     
    464600   291.8526       23.198786      30070.215      0.99484732    -8346.4955    
    464700   295.56959      496.72092      30070.215      0.99484732    -8328.9317    
    464800   304.34038     -34.892703      30070.215      0.99484732    -8293.1663    
    464900   296.96541      472.78601      30070.215      0.99484732    -8225.0287    
    465000   305.64468     -87.59924       30070.215      0.99484732    -8166.8686    
    465100   304.40039      69.55014       30070.215      0.99484732    -8188.5836    
    465200   294.99411     -561.95911      30070.215      0.99484732    -8235.4775    
    465300   293.97257     -55.848906      30070.215      0.99484732    -8228.14      
    465400   301.80015     -438.22878      30070.215      0.99484732    -8197.7698    
    465500   304.69958      531.85189      30070.215      0.99484732    -8171.0683    
    465600   302.24905      225.30487      30070.215      0.99484732    -8187.8512    
    465700   300.13554     -172.69566      30070.215      0.99484732    -8251.2033    
    465800   292.31468     -300.45193      30070.215      0.99484732    -8288.7127    
    465900   300.73257      299.63946      30070.215      0.99484732    -8234.9278    
    466000   296.01643      403.33766      30070.215      0.99484732    -8195.097     
    466100   303.1622       188.29256      30070.215      0.99484732    -8199.0918    
    466200   309.73219      498.34635      30070.215      0.99484732    -8257.5468    
    466300   300.01237      337.61567      30070.215      0.99484732    -8317.835     
    466400   289.64661     -3.1521303      30070.215      0.99484732    -8313.0927    
    466500   299.40786     -462.77457      30070.215      0.99484732    -8252.1303    
    466600   307.2159      -391.6647       30070.215      0.99484732    -8226.5417    
    466700   298.43545      204.53648      30070.215      0.99484732    -8255.1296    
    466800   288.01194     -404.22908      30070.215      0.99484732    -8306.9285    
    466900   290.1459      -505.35184      30070.215      0.99484732    -8372.2928    
    467000   286.82662      185.43272      30070.215      0.99484732    -8419.7541    
    467100   296.17872     -474.54378      30070.215      0.99484732    -8384.4884    
    467200   291.48297     -311.58953      30070.215      0.99484732    -8295.2157    
    467300   307.30092      0.55939288     30070.215      0.99484732    -8227.4616    
    467400   307.64028      393.61957      30070.215      0.99484732    -8197.8311    
    467500   297.99667      292.12668      30070.215      0.99484732    -8219.1309    
    467600   290.37026     -442.87268      30070.215      0.99484732    -8259.5927    
    467700   297.59556     -294.65722      30070.215      0.99484732    -8243.9171    
    467800   302.07669      366.8496       30070.215      0.99484732    -8159.1918    
    467900   306.20831      192.01689      30070.215      0.99484732    -8147.6947    
    468000   309.12684      289.69502      30070.215      0.99484732    -8174.9505    
    468100   297.58754     -211.08183      30070.215      0.99484732    -8246.0885    
    468200   298.50154      56.194275      30070.215      0.99484732    -8245.4548    
    468300   302.03427     -56.385755      30070.215      0.99484732    -8249.0413    
    468400   294.80698      314.97096      30070.215      0.99484732    -8279.0678    
    468500   292.15049     -264.45183      30070.215      0.99484732    -8326.4484    
    468600   301.73081      432.2988       30070.215      0.99484732    -8317.5743    
    468700   299.25577      99.163418      30070.215      0.99484732    -8264.8791    
    468800   301.44377      117.21693      30070.215      0.99484732    -8227.6954    
    468900   307.18504      108.19309      30070.215      0.99484732    -8228.0337    
    469000   287.4594      -789.73402      30070.215      0.99484732    -8307.481     
    469100   300.11391     -266.50664      30070.215      0.99484732    -8301.5976    
    469200   297.24854      278.42649      30070.215      0.99484732    -8264.2858    
    469300   297.42256      221.35226      30070.215      0.99484732    -8232.9346    
    469400   304.9345      -219.26665      30070.215      0.99484732    -8132.0427    
    469500   305.53562      113.49679      30070.215      0.99484732    -8122.696     
    469600   304.42154     -119.43258      30070.215      0.99484732    -8174.7782    
    469700   291.78187     -241.96812      30070.215      0.99484732    -8225.2821    
    469800   307.60953     -264.00432      30070.215      0.99484732    -8211.7084    
    469900   309.34441     -314.80062      30070.215      0.99484732    -8197.4275    
    470000   296.81751     -232.9598       30070.215      0.99484732    -8227.3934    
    470100   291.43079     -391.29033      30070.215      0.99484732    -8277.8625    
    470200   302.59342     -426.76765      30070.215      0.99484732    -8266.8067    
    470300   312.33436     -929.61698      30070.215      0.99484732    -8211.5724    
    470400   303.97611     -223.46797      30070.215      0.99484732    -8191.725     
    470500   300.31283     -509.84985      30070.215      0.99484732    -8263.9335    
    470600   296.39637      140.14138      30070.215      0.99484732    -8316.0061    
    470700   298.03524      140.1302       30070.215      0.99484732    -8326.2153    
    470800   300.0089      -371.03942      30070.215      0.99484732    -8315.7043    
    470900   304.22331      405.74482      30070.215      0.99484732    -8261.2463    
    471000   302.52145     -283.32604      30070.215      0.99484732    -8221.1749    
    471100   306.23782     -307.25633      30070.215      0.99484732    -8256.415     
    471200   289.38827      147.25837      30070.215      0.99484732    -8331.8413    
    471300   298.98275      70.190242      30070.215      0.99484732    -8316.2986    
    471400   302.70839      237.17576      30070.215      0.99484732    -8287.8926    
    471500   301.50702     -453.66059      30070.215      0.99484732    -8285.3901    
    471600   300.71345     -224.59498      30070.215      0.99484732    -8273.4777    
    471700   305.44651     -538.87361      30070.215      0.99484732    -8224.4552    
    471800   306.43408      11.658618      30070.215      0.99484732    -8208.3187    
    471900   307.21581      34.534552      30070.215      0.99484732    -8242.5755    
    472000   293.07309      184.98576      30070.215      0.99484732    -8327.5152    
    472100   297.67773      42.88799       30070.215      0.99484732    -8340.1245    
    472200   298.17761     -190.37069      30070.215      0.99484732    -8324.3828    
    472300   306.68596      324.24846      30070.215      0.99484732    -8288.5604    
    472400   303.76127      166.80664      30070.215      0.99484732    -8292.0907    
    472500   291.52978      58.12848       30070.215      0.99484732    -8351.2849    
    472600   289.77605     -340.4726       30070.215      0.99484732    -8359.9825    
    472700   301.48408     -530.14471      30070.215      0.99484732    -8289.5313    
    472800   297.85318      30.481342      30070.215      0.99484732    -8259.0493    
    472900   302.49358     -153.35855      30070.215      0.99484732    -8265.0066    
    473000   311.69024     -485.39541      30070.215      0.99484732    -8272.3747    
    473100   295.99498      177.84477      30070.215      0.99484732    -8280.6525    
    473200   299.02713      425.32328      30070.215      0.99484732    -8274.5612    
    473300   301.86907     -221.11868      30070.215      0.99484732    -8257.4125    
    473400   303.42205      163.89791      30070.215      0.99484732    -8220.182     
    473500   302.81281      179.13245      30070.215      0.99484732    -8195.3265    
    473600   297.67804     -231.60105      30070.215      0.99484732    -8223.2122    
    473700   300.20609     -660.83083      30070.215      0.99484732    -8276.6755    
    473800   299.15129     -359.32747      30070.215      0.99484732    -8325.9192    
    473900   298.13762     -150.91537      30070.215      0.99484732    -8313.8885    
    474000   309.29747     -526.88646      30070.215      0.99484732    -8257.2218    
    474100   305.53355      525.73984      30070.215      0.99484732    -8163.1592    
    474200   309.59322      327.69029      30070.215      0.99484732    -8190.985     
    474300   298.41269      265.34605      30070.215      0.99484732    -8264.1796    
    474400   299.72017     -598.18278      30070.215      0.99484732    -8291.1261    
    474500   299.98669      208.26469      30070.215      0.99484732    -8328.4216    
    474600   299.06768     -374.50842      30070.215      0.99484732    -8363.0462    
    474700   293.58963      3.7793928      30070.215      0.99484732    -8382.5395    
    474800   304.39045      64.525343      30070.215      0.99484732    -8359.0044    
    474900   295.57182      49.440685      30070.215      0.99484732    -8306.0912    
    475000   296.02576      138.44779      30070.215      0.99484732    -8256.7624    
    475100   301.6076       626.60942      30070.215      0.99484732    -8214.2428    
    475200   302.81345     -232.57761      30070.215      0.99484732    -8217.6791    
    475300   297.75781      568.98418      30070.215      0.99484732    -8284.5648    
    475400   292.53196     -414.14433      30070.215      0.99484732    -8354.1184    
    475500   298.26984     -508.39632      30070.215      0.99484732    -8317.9887    
    475600   302.80459      478.38843      30070.215      0.99484732    -8289.431     
    475700   302.16782      261.23742      30070.215      0.99484732    -8307.4612    
    475800   288.60752     -13.034615      30070.215      0.99484732    -8338.2367    
    475900   299.30175      745.17662      30070.215      0.99484732    -8270.7482    
    476000   304.54272      677.90258      30070.215      0.99484732    -8224.7708    
    476100   301.7379       489.21226      30070.215      0.99484732    -8245.5915    
    476200   301.55018     -27.697291      30070.215      0.99484732    -8284.1652    
    476300   292.66761     -295.01401      30070.215      0.99484732    -8337.0746    
    476400   295.06746     -679.65712      30070.215      0.99484732    -8330.0758    
    476500   305.27671      305.6661       30070.215      0.99484732    -8239.1581    
    476600   302.52342      59.321865      30070.215      0.99484732    -8212.869     
    476700   307.24131      30.696056      30070.215      0.99484732    -8201.7916    
    476800   299.40302     -203.47779      30070.215      0.99484732    -8267.6469    
    476900   298.46565     -135.06835      30070.215      0.99484732    -8287.818     
    477000   309.91757      334.94286      30070.215      0.99484732    -8272.1566    
    477100   291.67894     -2.6810988      30070.215      0.99484732    -8260.115     
    477200   305.40229      226.5935       30070.215      0.99484732    -8201.975     
    477300   299.60072      777.30169      30070.215      0.99484732    -8182.9013    
    477400   303.12949     -106.27423      30070.215      0.99484732    -8210.91      
    477500   299.92331      450.94134      30070.215      0.99484732    -8279.8188    
    477600   300.61618      483.00313      30070.215      0.99484732    -8304.8311    
    477700   298.36349     -378.12697      30070.215      0.99484732    -8284.757     
    477800   306.18193      250.14998      30070.215      0.99484732    -8235.8481    
    477900   298.82772      56.189971      30070.215      0.99484732    -8227.7789    
    478000   302.15028      15.602174      30070.215      0.99484732    -8209.9495    
    478100   305.49448      350.75932      30070.215      0.99484732    -8247.5785    
    478200   293.34345      484.098        30070.215      0.99484732    -8319.8675    
    478300   297.97405      348.97024      30070.215      0.99484732    -8313.5631    
    478400   296.48887      943.6807       30070.215      0.99484732    -8288.6524    
    478500   305.9688       122.43555      30070.215      0.99484732    -8251.5105    
    478600   298.29751      653.86027      30070.215      0.99484732    -8223.1425    
    478700   307.08564     -43.293916      30070.215      0.99484732    -8173.3486    
    478800   311.51856      86.939888      30070.215      0.99484732    -8178.9467    
    478900   303.53935      282.98519      30070.215      0.99484732    -8259.101     
    479000   301.50109      62.740485      30070.215      0.99484732    -8291.634     
    479100   302.68208      26.969057      30070.215      0.99484732    -8306.7036    
    479200   305.66381      457.25566      30070.215      0.99484732    -8311.1463    
    479300   292.76662     -402.85782      30070.215      0.99484732    -8339.3491    
    479400   299.3439       26.723307      30070.215      0.99484732    -8365.6817    
    479500   305.81184      60.016184      30070.215      0.99484732    -8316.8463    
    479600   300.18065     -69.126726      30070.215      0.99484732    -8255.962     
    479700   300.3223       240.17846      30070.215      0.99484732    -8239.0029    
    479800   292.50781      50.894979      30070.215      0.99484732    -8270.7494    
    479900   294.39042      408.10696      30070.215      0.99484732    -8300.9642    
    480000   292.75317     -164.13004      30070.215      0.99484732    -8343.3483    
    480100   297.10165     -178.74954      30070.215      0.99484732    -8295.2069    
    480200   306.32677      269.1632       30070.215      0.99484732    -8232.5165    
    480300   299.98186      621.46456      30070.215      0.99484732    -8251.7598    
    480400   297.02932     -145.77712      30070.215      0.99484732    -8289.8602    
    480500   301.49909      11.238133      30070.215      0.99484732    -8271.7416    
    480600   306.84636      1138.6815      30070.215      0.99484732    -8185.8354    
    480700   312.8793       626.82679      30070.215      0.99484732    -8201.2732    
    480800   304.12007     -163.51892      30070.215      0.99484732    -8265.9672    
    480900   292.59013      739.92994      30070.215      0.99484732    -8293.9541    
    481000   301.74575     -278.13011      30070.215      0.99484732    -8302.3641    
    481100   305.21987     -191.11156      30070.215      0.99484732    -8297.4048    
    481200   308.52882      40.700746      30070.215      0.99484732    -8270.2109    
    481300   302.24393      91.437136      30070.215      0.99484732    -8261.768     
    481400   299.15023     -100.84395      30070.215      0.99484732    -8286.8276    
    481500   302.09661     -141.35635      30070.215      0.99484732    -8328.327     
    481600   286.0133      -412.85574      30070.215      0.99484732    -8346.491     
    481700   297.28655      29.691516      30070.215      0.99484732    -8261.3823    
    481800   306.71883     -189.02085      30070.215      0.99484732    -8251.4824    
    481900   295.43574     -560.39918      30070.215      0.99484732    -8268.6527    
    482000   291.68037     -131.37774      30070.215      0.99484732    -8279.0653    
    482100   294.61482      337.4941       30070.215      0.99484732    -8279.456     
    482200   295.27027     -312.2007       30070.215      0.99484732    -8284.0178    
    482300   298.42241      179.15212      30070.215      0.99484732    -8222.6688    
    482400   308.0401       157.32614      30070.215      0.99484732    -8180.4993    
    482500   311.95144      518.21353      30070.215      0.99484732    -8216.617     
    482600   303.77769      162.86513      30070.215      0.99484732    -8270.7204    
    482700   301.2805       129.5862       30070.215      0.99484732    -8284.1809    
    482800   289.08957      278.24697      30070.215      0.99484732    -8294.5606    
    482900   301.11719      319.31288      30070.215      0.99484732    -8261.2659    
    483000   306.17011      278.35923      30070.215      0.99484732    -8172.5336    
    483100   306.57682      84.614727      30070.215      0.99484732    -8164.5993    
    483200   299.39056     -113.23488      30070.215      0.99484732    -8200.0335    
    483300   304.5892       193.95729      30070.215      0.99484732    -8241.4314    
    483400   299.46104      60.342347      30070.215      0.99484732    -8264.3062    
    483500   300.63719     -445.69959      30070.215      0.99484732    -8268.1534    
    483600   298.7503      -287.05735      30070.215      0.99484732    -8248.0113    
    483700   311.0659       368.58103      30070.215      0.99484732    -8175.8133    
    483800   301.46425     -78.533871      30070.215      0.99484732    -8176.0317    
    483900   297.2465      -229.87405      30070.215      0.99484732    -8204.2172    
    484000   297.34495      134.76702      30070.215      0.99484732    -8184.0602    
    484100   306.90305      377.35109      30070.215      0.99484732    -8138.9112    
    484200   301.91775     -258.81673      30070.215      0.99484732    -8164.0865    
    484300   298.40071     -19.285773      30070.215      0.99484732    -8241.8122    
    484400   296.4225       20.062405      30070.215      0.99484732    -8254.5724    
    484500   302.79353     -286.62867      30070.215      0.99484732    -8236.0373    
    484600   304.15465     -555.70571      30070.215      0.99484732    -8220.2787    
    484700   299.74159     -277.60067      30070.215      0.99484732    -8223.4656    
    484800   296.81874     -251.42497      30070.215      0.99484732    -8252.8601    
    484900   295.89925     -227.30305      30070.215      0.99484732    -8275.0481    
    485000   290.91395      299.95674      30070.215      0.99484732    -8243.3277    
    485100   300.70084      15.462301      30070.215      0.99484732    -8177.9233    
    485200   300.66265      557.20938      30070.215      0.99484732    -8172.9857    
    485300   299.53426      45.689251      30070.215      0.99484732    -8227.6194    
    485400   298.55912     -105.839        30070.215      0.99484732    -8253.8093    
    485500   303.84965     -122.36901      30070.215      0.99484732    -8248.0473    
    485600   301.22265     -43.920058      30070.215      0.99484732    -8254.2349    
    485700   294.88179     -292.49591      30070.215      0.99484732    -8257.5635    
    485800   302.13419      89.063831      30070.215      0.99484732    -8194.7862    
    485900   304.32467     -118.35207      30070.215      0.99484732    -8187.7415    
    486000   301.96792     -244.21886      30070.215      0.99484732    -8238.549     
    486100   295.78041     -120.33021      30070.215      0.99484732    -8287.5314    
    486200   294.97005     -68.070408      30070.215      0.99484732    -8342.0004    
    486300   287.67265     -728.68647      30070.215      0.99484732    -8383.2541    
    486400   299.07065     -354.89045      30070.215      0.99484732    -8314.8612    
    486500   295.47289      334.11391      30070.215      0.99484732    -8260.9435    
    486600   299.00697      474.41148      30070.215      0.99484732    -8246.3565    
    486700   306.40898      432.65302      30070.215      0.99484732    -8279.5189    
    486800   298.15493     -84.454412      30070.215      0.99484732    -8342.645     
    486900   289.3874      -101.43934      30070.215      0.99484732    -8345.2702    
    487000   289.89952      46.945281      30070.215      0.99484732    -8299.1424    
    487100   296.89979      64.496763      30070.215      0.99484732    -8277.6731    
    487200   299.19683     -157.02268      30070.215      0.99484732    -8272.3078    
    487300   302.03537     -771.62064      30070.215      0.99484732    -8305.5475    
    487400   293.80064     -433.11346      30070.215      0.99484732    -8361.278     
    487500   295.32284     -260.14095      30070.215      0.99484732    -8343.3479    
    487600   298.53267      118.64213      30070.215      0.99484732    -8252.2961    
    487700   296.03627      183.85052      30070.215      0.99484732    -8229.8043    
    487800   308.5763       251.39271      30070.215      0.99484732    -8244.1972    
    487900   297.60002     -268.38544      30070.215      0.99484732    -8294.7084    
    488000   290.88055     -578.84265      30070.215      0.99484732    -8314.132     
    488100   295.57622     -147.18111      30070.215      0.99484732    -8240.5975    
    488200   306.44713     -10.686218      30070.215      0.99484732    -8176.0699    
    488300   303.58447      163.07989      30070.215      0.99484732    -8191.5716    
    488400   299.54339      82.830093      30070.215      0.99484732    -8248.8656    
    488500   296.301        345.30221      30070.215      0.99484732    -8298.2068    
    488600   297.5383      -9.2494175      30070.215      0.99484732    -8304.4229    
    488700   290.37963      16.590226      30070.215      0.99484732    -8294.4292    
    488800   304.9735      -28.362943      30070.215      0.99484732    -8182.7704    
    488900   308.1659       147.61446      30070.215      0.99484732    -8178.0576    
    489000   300.81103      144.12682      30070.215      0.99484732    -8245.9539    
    489100   295.71823     -58.109381      30070.215      0.99484732    -8295.4546    
    489200   299.29409      121.33822      30070.215      0.99484732    -8295.1198    
    489300   301.9685       725.96318      30070.215      0.99484732    -8298.711     
    489400   297.46423     -916.01007      30070.215      0.99484732    -8367.8195    
    489500   289.85372     -155.11177      30070.215      0.99484732    -8385.56      
    489600   296.01727      311.2463       30070.215      0.99484732    -8319.7342    
    489700   298.64754      13.497576      30070.215      0.99484732    -8298.1256    
    489800   296.96458     -144.69576      30070.215      0.99484732    -8291.102     
    489900   298.61126      203.11413      30070.215      0.99484732    -8268.0155    
    490000   302.31352      102.33377      30070.215      0.99484732    -8221.6912    
    490100   312.03219      224.1997       30070.215      0.99484732    -8154.8251    
    490200   309.79511     -548.28741      30070.215      0.99484732    -8193.3324    
    490300   301.20737     -21.53107       30070.215      0.99484732    -8252.5264    
    490400   302.28444      62.394127      30070.215      0.99484732    -8248.4003    
    490500   305.60287      517.25052      30070.215      0.99484732    -8249.2166    
    490600   293.49583     -542.00895      30070.215      0.99484732    -8310.8591    
    490700   298.51292     -281.76236      30070.215      0.99484732    -8335.4482    
    490800   306.90752     -240.63504      30070.215      0.99484732    -8287.6799    
    490900   304.37247      59.34911       30070.215      0.99484732    -8204.817     
    491000   304.46881      244.40086      30070.215      0.99484732    -8213.5001    
    491100   303.62235     -348.01255      30070.215      0.99484732    -8260.061     
    491200   300.03301      206.59526      30070.215      0.99484732    -8261.1243    
    491300   306.09833      402.19238      30070.215      0.99484732    -8246.1629    
    491400   303.8197       295.53148      30070.215      0.99484732    -8257.8208    
    491500   300.16723     -82.168457      30070.215      0.99484732    -8266.2626    
    491600   303.16968     -164.06406      30070.215      0.99484732    -8271.8289    
    491700   297.83763      31.880235      30070.215      0.99484732    -8257.3746    
    491800   312.82945      197.05814      30070.215      0.99484732    -8190.4679    
    491900   301.18304      266.79251      30070.215      0.99484732    -8176.4476    
    492000   305.72284     -26.731312      30070.215      0.99484732    -8229.7765    
    492100   300.95838     -292.84849      30070.215      0.99484732    -8271.531     
    492200   288.23326     -244.71859      30070.215      0.99484732    -8267.5916    
    492300   293.32702     -287.65607      30070.215      0.99484732    -8207.9116    
    492400   306.02214     -151.77778      30070.215      0.99484732    -8161.5703    
    492500   307.65834      143.76161      30070.215      0.99484732    -8161.1795    
    492600   298.96337      460.62585      30070.215      0.99484732    -8204.4147    
    492700   300.31153     -37.783119      30070.215      0.99484732    -8279.2347    
    492800   298.8122      -322.92366      30070.215      0.99484732    -8296.8802    
    492900   292.26903     -489.90566      30070.215      0.99484732    -8280.4616    
    493000   303.09281      387.28082      30070.215      0.99484732    -8229.3001    
    493100   303.4822       149.26239      30070.215      0.99484732    -8195.9911    
    493200   301.81252      231.02193      30070.215      0.99484732    -8212.6391    
    493300   290.24509      25.914846      30070.215      0.99484732    -8315.0917    
    493400   296.29201     -980.72333      30070.215      0.99484732    -8316.1981    
    493500   306.84635      108.85616      30070.215      0.99484732    -8253.3285    
    493600   302.25103      897.50967      30070.215      0.99484732    -8239.1626    
    493700   298.63592      98.801572      30070.215      0.99484732    -8260.3555    
    493800   292.50904     -709.53378      30070.215      0.99484732    -8330.9557    
    493900   291.91298     -209.99708      30070.215      0.99484732    -8351.6292    
    494000   297.30223     -3.7267461      30070.215      0.99484732    -8288.2526    
    494100   294.15673      79.270463      30070.215      0.99484732    -8210.0432    
    494200   298.15225      430.38692      30070.215      0.99484732    -8194.9151    
    494300   295.01316      240.17687      30070.215      0.99484732    -8191.6775    
    494400   292.6205      -138.68861      30070.215      0.99484732    -8185.3376    
    494500   309.64434      545.79783      30070.215      0.99484732    -8141.3512    
    494600   296.97039      410.36189      30070.215      0.99484732    -8189.4548    
    494700   292.31242     -260.45706      30070.215      0.99484732    -8248.9156    
    494800   295.32205     -304.14266      30070.215      0.99484732    -8218.8365    
    494900   303.1137      -184.78172      30070.215      0.99484732    -8182.2892    
    495000   301.4007      -270.28178      30070.215      0.99484732    -8201.2944    
    495100   289.73359     -288.95188      30070.215      0.99484732    -8282.7461    
    495200   295.11497     -153.33884      30070.215      0.99484732    -8327.1494    
    495300   301.80656     -162.99426      30070.215      0.99484732    -8306.2367    
    495400   306.79806     -311.79727      30070.215      0.99484732    -8268.7645    
    495500   302.87598     -452.14954      30070.215      0.99484732    -8223.6279    
    495600   308.77469      268.54344      30070.215      0.99484732    -8161.4987    
    495700   305.40824     -987.10808      30070.215      0.99484732    -8181.1085    
    495800   291.9273      -579.48785      30070.215      0.99484732    -8197.505     
    495900   309.24981      111.65365      30070.215      0.99484732    -8117.0088    
    496000   309.71885      186.16754      30070.215      0.99484732    -8101.1774    
    496100   299.75678     -90.661089      30070.215      0.99484732    -8181.7032    
    496200   305.74019      253.99243      30070.215      0.99484732    -8236.1682    
    496300   298.73545     -941.244        30070.215      0.99484732    -8277.0221    
    496400   302.75554     -363.33296      30070.215      0.99484732    -8284.5597    
    496500   294.77653      50.244899      30070.215      0.99484732    -8321.2466    
    496600   291.0351      -241.28199      30070.215      0.99484732    -8385.2421    
    496700   287.74814     -71.690813      30070.215      0.99484732    -8350.6941    
    496800   303.03661      45.861264      30070.215      0.99484732    -8282.1525    
    496900   296.14113     -53.137469      30070.215      0.99484732    -8268.9467    
    497000   301.77349     -139.813        30070.215      0.99484732    -8248.321     
    497100   304.24897     -134.12812      30070.215      0.99484732    -8195.9577    
    497200   310.38642      340.08927      30070.215      0.99484732    -8165.8897    
    497300   301.45052      531.06546      30070.215      0.99484732    -8240.8103    
    497400   296.23573     -142.54945      30070.215      0.99484732    -8271.7196    
    497500   298.86016     -136.67526      30070.215      0.99484732    -8262.8541    
    497600   296.98032      315.63573      30070.215      0.99484732    -8245.1821    
    497700   301.19526      345.88867      30070.215      0.99484732    -8233.6007    
    497800   300.87787     -331.24811      30070.215      0.99484732    -8258.4408    
    497900   297.46628     -48.292237      30070.215      0.99484732    -8294.6776    
    498000   293.68731     -30.261727      30070.215      0.99484732    -8319.1109    
    498100   299.89796     -789.23065      30070.215      0.99484732    -8321.4573    
    498200   303.66367      281.08117      30070.215      0.99484732    -8265.6386    
    498300   306.15417     -129.18078      30070.215      0.99484732    -8239.7017    
    498400   295.78832     -601.90245      30070.215      0.99484732    -8285.4663    
    498500   292.74852      310.45245      30070.215      0.99484732    -8354.238     
    498600   299.43935     -363.29319      30070.215      0.99484732    -8406.0267    
    498700   291.62484     -193.47916      30070.215      0.99484732    -8400.7518    
    498800   292.26846      547.46824      30070.215      0.99484732    -8365.4792    
    498900   300.5219       864.31385      30070.215      0.99484732    -8336.5183    
    499000   295.3971       175.34781      30070.215      0.99484732    -8314.8868    
    499100   308.615       -261.7706       30070.215      0.99484732    -8238.7165    
    499200   306.09596     -48.280255      30070.215      0.99484732    -8219.5304    
    499300   301.03645     -155.89835      30070.215      0.99484732    -8252.8986    
    499400   291.0123      -609.03261      30070.215      0.99484732    -8278.4979    
    499500   307.77462     -110.14278      30070.215      0.99484732    -8232.7725    
    499600   304.71653      263.49937      30070.215      0.99484732    -8166.9501    
    499700   311.36363     -157.75166      30070.215      0.99484732    -8170.7577    
    499800   294.2894       119.77941      30070.215      0.99484732    -8260.187     
    499900   300.90989     -684.53758      30070.215      0.99484732    -8291.4717    
    500000   296.57013     -217.43905      30070.215      0.99484732    -8315.0355    
    500100   297.51883     -405.96182      30070.215      0.99484732    -8304.7475    
    500200   307.58098      77.54624       30070.215      0.99484732    -8217.3857    
    500300   309.50427      187.15064      30070.215      0.99484732    -8224.3322    
    500400   297.36789     -427.24931      30070.215      0.99484732    -8267.3693    
    500500   300.83844     -278.76825      30070.215      0.99484732    -8265.343     
    500600   300.33107      176.66047      30070.215      0.99484732    -8241.0273    
    500700   304.95342      156.37986      30070.215      0.99484732    -8149.738     
    500800   309.13198      143.24627      30070.215      0.99484732    -8167.7059    
    500900   297.92248      42.183634      30070.215      0.99484732    -8234.098     
    501000   302.46642      10.312438      30070.215      0.99484732    -8246.1669    
    501100   296.25003     -265.67249      30070.215      0.99484732    -8272.2734    
    501200   301.51591      139.16825      30070.215      0.99484732    -8272.8128    
    501300   293.91765     -324.95636      30070.215      0.99484732    -8225.8124    
    501400   312.19219      836.57602      30070.215      0.99484732    -8131.0034    
    501500   302.23539      148.35411      30070.215      0.99484732    -8174.9315    
    501600   295.43122      7.7006539      30070.215      0.99484732    -8247.2564    
    501700   295.2197       193.05091      30070.215      0.99484732    -8279.8568    
    501800   298.88752      744.87486      30070.215      0.99484732    -8256.298     
    501900   304.50071      312.06089      30070.215      0.99484732    -8205.614     
    502000   317.44515      81.977619      30070.215      0.99484732    -8146.545     
    502100   302.63332      120.47511      30070.215      0.99484732    -8139.727     
    502200   303.5848      -127.2164       30070.215      0.99484732    -8216.3011    
    502300   298.00357      277.14912      30070.215      0.99484732    -8268.4705    
    502400   300.73408     -153.06209      30070.215      0.99484732    -8282.6782    
    502500   298.45778      224.31898      30070.215      0.99484732    -8292.6571    
    502600   298.22512     -469.91469      30070.215      0.99484732    -8300.6939    
    502700   305.31952     -631.66755      30070.215      0.99484732    -8242.6864    
    502800   304.56601      219.37357      30070.215      0.99484732    -8195.4399    
    502900   305.2247       271.26779      30070.215      0.99484732    -8209.1775    
    503000   300.00623     -225.09614      30070.215      0.99484732    -8276.0764    
    503100   290.75145     -88.55038       30070.215      0.99484732    -8321.2593    
    503200   299.52656     -247.37188      30070.215      0.99484732    -8299.415     
    503300   300.31198      126.13464      30070.215      0.99484732    -8279.3027    
    503400   300.57589     -56.626795      30070.215      0.99484732    -8250.448     
    503500   293.58202      14.508949      30070.215      0.99484732    -8230.6209    
    503600   303.18864     -110.85971      30070.215      0.99484732    -8171.2123    
    503700   300.91392      269.8329       30070.215      0.99484732    -8114.1805    
    503800   310.8612      -30.769561      30070.215      0.99484732    -8121.8513    
    503900   309.8946       76.166546      30070.215      0.99484732    -8201.8446    
    504000   300.62576     -195.31071      30070.215      0.99484732    -8238.8791    
    504100   298.36508      5.7906539      30070.215      0.99484732    -8247.1306    
    504200   300.81431     -104.9288       30070.215      0.99484732    -8234.4203    
    504300   305.24477     -34.915545      30070.215      0.99484732    -8197.2175    
    504400   300.31433     -333.81106      30070.215      0.99484732    -8144.2019    
    504500   310.15656      255.46674      30070.215      0.99484732    -8101.6498    
    504600   310.25205      664.14282      30070.215      0.99484732    -8135.5171    
    504700   302.29655      247.32641      30070.215      0.99484732    -8235.5043    
    504800   297.59365      36.83322       30070.215      0.99484732    -8265.6565    
    504900   299.81123     -70.001171      30070.215      0.99484732    -8255.1354    
    505000   303.44949      52.937615      30070.215      0.99484732    -8194.4467    
    505100   310.22589      439.412        30070.215      0.99484732    -8160.3523    
    505200   300.65231      466.22306      30070.215      0.99484732    -8194.922     
    505300   301.67257      554.69959      30070.215      0.99484732    -8228.0208    
    505400   302.65902     -151.37679      30070.215      0.99484732    -8253.0682    
    505500   302.85269      437.64298      30070.215      0.99484732    -8274.4025    
    505600   306.48036      190.7659       30070.215      0.99484732    -8280.2828    
    505700   292.53187      270.5755       30070.215      0.99484732    -8282.9396    
    505800   298.21047      80.932157      30070.215      0.99484732    -8276.9887    
    505900   303.34076      642.66934      30070.215      0.99484732    -8248.8068    
    506000   302.60107      499.72711      30070.215      0.99484732    -8222.3859    
    506100   314.0296       53.437589      30070.215      0.99484732    -8197.2768    
    506200   303.628        321.76461      30070.215      0.99484732    -8223.3623    
    506300   298.96959     -212.52625      30070.215      0.99484732    -8288.9484    
    506400   298.05614      385.70376      30070.215      0.99484732    -8289.3307    
    506500   302.81935      402.88826      30070.215      0.99484732    -8238.2798    
    506600   302.49446      802.92686      30070.215      0.99484732    -8176.3889    
    506700   304.54318     -69.683559      30070.215      0.99484732    -8196.0563    
    506800   285.82128     -489.30903      30070.215      0.99484732    -8308.1553    
    506900   298.32743      201.4752       30070.215      0.99484732    -8310.3988    
    507000   306.11996      679.449        30070.215      0.99484732    -8271.2672    
    507100   289.64079      316.85239      30070.215      0.99484732    -8252.5855    
    507200   304.76503      545.51119      30070.215      0.99484732    -8182.5972    
    507300   300.57957      254.89042      30070.215      0.99484732    -8166.4664    
    507400   300.32465      38.058286      30070.215      0.99484732    -8183.9479    
    507500   303.40464     -415.099        30070.215      0.99484732    -8210.3765    
    507600   298.02935     -486.01116      30070.215      0.99484732    -8215.1928    
    507700   296.41169      318.79787      30070.215      0.99484732    -8188.9556    
    507800   304.35402      523.41957      30070.215      0.99484732    -8146.4243    
    507900   303.76467      406.34784      30070.215      0.99484732    -8127.875     
    508000   307.92546      429.52584      30070.215      0.99484732    -8152.3469    
    508100   289.57875      662.70594      30070.215      0.99484732    -8251.1216    
    508200   301.90372     -176.41777      30070.215      0.99484732    -8266.9202    
    508300   298.11314      10.446171      30070.215      0.99484732    -8250.7258    
    508400   303.59152      488.69739      30070.215      0.99484732    -8205.0937    
    508500   308.56711      653.97822      30070.215      0.99484732    -8154.9519    
    508600   311.21912      284.74318      30070.215      0.99484732    -8232.3175    
    508700   298.69454      87.216052      30070.215      0.99484732    -8287.3605    
    508800   295.60124      25.738774      30070.215      0.99484732    -8289.059     
    508900   301.30298     -286.84054      30070.215      0.99484732    -8268.5841    
    509000   297.14913     -69.349465      30070.215      0.99484732    -8228.3257    
    509100   311.20341     -71.726765      30070.215      0.99484732    -8167.2994    
    509200   307.88431     -56.237024      30070.215      0.99484732    -8195.1005    
    509300   302.15854     -176.30016      30070.215      0.99484732    -8250.9627    
    509400   300.4639      -617.27881      30070.215      0.99484732    -8270.1402    
    509500   305.10374     -331.13834      30070.215      0.99484732    -8238.7355    
    509600   302.81146     -494.52702      30070.215      0.99484732    -8195.185     
    509700   298.52893     -174.2413       30070.215      0.99484732    -8215.1753    
    509800   294.47155     -320.72963      30070.215      0.99484732    -8294.9619    
    509900   291.23001     -412.9021       30070.215      0.99484732    -8348.889     
    510000   300.29016     -400.56242      30070.215      0.99484732    -8321.6643    
    510100   299.49081      588.26183      30070.215      0.99484732    -8281.772     
    510200   297.25792      601.84572      30070.215      0.99484732    -8277.8977    
    510300   293.48331      342.41082      30070.215      0.99484732    -8358.2136    
    510400   289.27234      140.95468      30070.215      0.99484732    -8388.7994    
    510500   298.6286      -50.971937      30070.215      0.99484732    -8337.6119    
    510600   297.15996     -841.75561      30070.215      0.99484732    -8284.781     
    510700   301.76225     -119.94228      30070.215      0.99484732    -8243.3741    
    510800   293.97856      23.307352      30070.215      0.99484732    -8244.2905    
    510900   301.5503      -17.706143      30070.215      0.99484732    -8252.3158    
    511000   294.82062     -403.59619      30070.215      0.99484732    -8319.3529    
    511100   280.24669     -229.51542      30070.215      0.99484732    -8389.307     
    511200   293.00956     -809.02171      30070.215      0.99484732    -8324.0669    
    511300   302.95304     -571.00996      30070.215      0.99484732    -8257.4739    
    511400   312.36876     -82.459319      30070.215      0.99484732    -8218.9138    
    511500   294.1701       68.552127      30070.215      0.99484732    -8276.7675    
    511600   301.47847      301.93231      30070.215      0.99484732    -8318.6056    
    511700   296.54984      35.099438      30070.215      0.99484732    -8309.0167    
    511800   299.22493     -271.16782      30070.215      0.99484732    -8254.5197    
    511900   302.9824      -164.07393      30070.215      0.99484732    -8247.6341    
    512000   296.10091      201.85719      30070.215      0.99484732    -8265.3523    
    512100   300.93238      34.799205      30070.215      0.99484732    -8256.2193    
    512200   305.02423      6.3509795      30070.215      0.99484732    -8231.9291    
    512300   310.63315      144.05419      30070.215      0.99484732    -8196.7696    
    512400   304.58693     -197.78176      30070.215      0.99484732    -8224.619     
    512500   296.884       -59.621779      30070.215      0.99484732    -8287.8889    
    512600   291.86064      100.3598       30070.215      0.99484732    -8308.877     
    512700   304.84887      9.9129491      30070.215      0.99484732    -8262.3507    
    512800   305.00056      18.371686      30070.215      0.99484732    -8220.7578    
    512900   298.2802      -323.41658      30070.215      0.99484732    -8249.2487    
    513000   297.7765       153.11881      30070.215      0.99484732    -8354.6046    
    513100   290.15455     -18.02512       30070.215      0.99484732    -8388.2538    
    513200   296.24161     -326.78595      30070.215      0.99484732    -8323.3185    
    513300   299.49726     -592.26572      30070.215      0.99484732    -8252.0167    
    513400   309.22905     -802.18225      30070.215      0.99484732    -8229.3488    
    513500   293.93269     -243.22112      30070.215      0.99484732    -8252.7628    
    513600   311.70626     -712.66558      30070.215      0.99484732    -8271.6287    
    513700   292.07234     -132.25965      30070.215      0.99484732    -8342.1678    
    513800   298.02824     -53.757964      30070.215      0.99484732    -8341.4636    
    513900   302.24817     -170.12751      30070.215      0.99484732    -8272.9001    
    514000   308.53717     -418.22377      30070.215      0.99484732    -8250.9052    
    514100   294.2632       23.127642      30070.215      0.99484732    -8261.2151    
    514200   297.59967      147.40611      30070.215      0.99484732    -8268.2445    
    514300   299.40088     -67.941412      30070.215      0.99484732    -8272.1756    
    514400   298.54133     -463.81444      30070.215      0.99484732    -8243.1341    
    514500   308.6727      -328.23691      30070.215      0.99484732    -8187.8233    
    514600   302.2866      -9.6970719      30070.215      0.99484732    -8168.3309    
    514700   300.93467     -325.05329      30070.215      0.99484732    -8218.904     
    514800   290.27667     -305.41486      30070.215      0.99484732    -8273.3506    
    514900   291.20244     -48.488358      30070.215      0.99484732    -8272.6091    
    515000   303.56776      288.66557      30070.215      0.99484732    -8196.3122    
    515100   306.02429     -360.6949       30070.215      0.99484732    -8181.2818    
    515200   296.18714     -182.22199      30070.215      0.99484732    -8247.076     
    515300   295.07354      122.09167      30070.215      0.99484732    -8273.2687    
    515400   293.36073      61.45695       30070.215      0.99484732    -8254.3208    
    515500   302.24899      654.48447      30070.215      0.99484732    -8213.2039    
    515600   298.85467      182.09484      30070.215      0.99484732    -8213.0314    
    515700   305.09569      27.246944      30070.215      0.99484732    -8243.17      
    515800   305.99087      232.17002      30070.215      0.99484732    -8266.2579    
    515900   292.7621       165.92095      30070.215      0.99484732    -8279.9039    
    516000   297.70361     -506.98797      30070.215      0.99484732    -8254.0657    
    516100   297.95004      217.44128      30070.215      0.99484732    -8171.2183    
    516200   300.54699      382.45119      30070.215      0.99484732    -8153.5503    
    516300   298.30438     -76.647935      30070.215      0.99484732    -8172.186     
    516400   298.12462     -256.21072      30070.215      0.99484732    -8201.2891    
    516500   299.80276      41.460525      30070.215      0.99484732    -8235.5014    
    516600   300.10441     -408.77954      30070.215      0.99484732    -8261.6074    
    516700   297.33352     -317.0068       30070.215      0.99484732    -8286.2106    
    516800   292.55702     -304.20382      30070.215      0.99484732    -8249.3544    
    516900   298.24238     -334.06654      30070.215      0.99484732    -8182.1261    
    517000   298.00005     -64.523061      30070.215      0.99484732    -8157.0585    
    517100   302.69239      149.72952      30070.215      0.99484732    -8167.0838    
    517200   302.35809     -344.4284       30070.215      0.99484732    -8223.673     
    517300   298.1669      -144.97641      30070.215      0.99484732    -8315.6921    
    517400   288.92581     -16.106501      30070.215      0.99484732    -8307.6693    
    517500   296.30812      717.05844      30070.215      0.99484732    -8242.58      
    517600   301.12276     -244.75091      30070.215      0.99484732    -8209.6799    
    517700   296.06085     -516.25702      30070.215      0.99484732    -8196.4529    
    517800   296.89372     -443.85067      30070.215      0.99484732    -8157.2612    
    517900   309.32875     -686.51177      30070.215      0.99484732    -8086.4531    
    518000   300.50321     -568.93338      30070.215      0.99484732    -8094.6463    
    518100   305.61258     -504.81015      30070.215      0.99484732    -8173.7639    
    518200   299.1814      -472.52342      30070.215      0.99484732    -8209.1343    
    518300   296.05834      192.60825      30070.215      0.99484732    -8201.1651    
    518400   308.95898      94.946624      30070.215      0.99484732    -8165.4407    
    518500   307.43851     -160.92503      30070.215      0.99484732    -8163.674     
    518600   298.03264      410.20813      30070.215      0.99484732    -8243.1699    
    518700   297.46076     -535.56884      30070.215      0.99484732    -8283.5439    
    518800   299.28363      182.73505      30070.215      0.99484732    -8283.8273    
    518900   296.22786     -267.17427      30070.215      0.99484732    -8249.8205    
    519000   309.71142     -397.74807      30070.215      0.99484732    -8162.1028    
    519100   299.73472     -83.875215      30070.215      0.99484732    -8146.7849    
    519200   305.64006      284.42906      30070.215      0.99484732    -8160.056     
    519300   293.44056      265.2163       30070.215      0.99484732    -8214.0612    
    519400   300.24211      359.3735       30070.215      0.99484732    -8255.1789    
    519500   297.71756     -155.4016       30070.215      0.99484732    -8280.548     
    519600   299.89821     -126.34827      30070.215      0.99484732    -8241.0573    
    519700   302.77292      682.86954      30070.215      0.99484732    -8160.5715    
    519800   304.12515      224.98746      30070.215      0.99484732    -8130.3531    
    519900   307.23393     -216.04915      30070.215      0.99484732    -8155.8719    
    520000   304.70071     -215.78012      30070.215      0.99484732    -8209.2753    
    520100   293.77564      289.72893      30070.215      0.99484732    -8257.1952    
    520200   301.87257     -339.27365      30070.215      0.99484732    -8258.375     
    520300   305.0156       265.94774      30070.215      0.99484732    -8211.4426    
    520400   307.70707      434.91868      30070.215      0.99484732    -8183.8422    
    520500   292.33249     -105.8822       30070.215      0.99484732    -8271.8081    
    520600   301.96461     -28.918987      30070.215      0.99484732    -8293.3646    
    520700   296.60752     -145.83304      30070.215      0.99484732    -8291.6075    
    520800   298.06518     -82.073324      30070.215      0.99484732    -8299.7918    
    520900   297.14343      429.06955      30070.215      0.99484732    -8352.3671    
    521000   293.75794     -126.12142      30070.215      0.99484732    -8365.5156    
    521100   300.59785      641.82569      30070.215      0.99484732    -8293.9772    
    521200   291.92536      79.434168      30070.215      0.99484732    -8259.5916    
    521300   304.28428      547.57327      30070.215      0.99484732    -8235.561     
    521400   311.59758      217.72787      30070.215      0.99484732    -8273.7691    
    521500   299.40362      376.85389      30070.215      0.99484732    -8322.3473    
    521600   297.11615      248.56859      30070.215      0.99484732    -8318.9044    
    521700   299.15875      176.04335      30070.215      0.99484732    -8281.1309    
    521800   306.345        106.76053      30070.215      0.99484732    -8235.9974    
    521900   307.02055     -220.05913      30070.215      0.99484732    -8250.5371    
    522000   291.59346     -310.56129      30070.215      0.99484732    -8343.2382    
    522100   292.75264      169.35798      30070.215      0.99484732    -8318.9483    
    522200   305.48036      274.97848      30070.215      0.99484732    -8267.1662    
    522300   301.73655      495.70157      30070.215      0.99484732    -8268.9469    
    522400   297.93178     -757.58368      30070.215      0.99484732    -8288.1404    
    522500   299.39766     -364.55203      30070.215      0.99484732    -8308.2834    
    522600   299.87537      78.849319      30070.215      0.99484732    -8298.0054    
    522700   299.88352      201.93501      30070.215      0.99484732    -8255.2141    
    522800   304.05959      51.010324      30070.215      0.99484732    -8231.5465    
    522900   306.39951      120.63108      30070.215      0.99484732    -8174.8606    
    523000   303.57261      342.22364      30070.215      0.99484732    -8143.1038    
    523100   297.13121      577.99426      30070.215      0.99484732    -8208.1118    
    523200   296.83072      291.01232      30070.215      0.99484732    -8267.8751    
    523300   298.5128       47.208769      30070.215      0.99484732    -8250.3174    
    523400   299.04544      175.74552      30070.215      0.99484732    -8209.8949    
    523500   304.09486      975.8551       30070.215      0.99484732    -8172.4017    
    523600   307.14313      374.78454      30070.215      0.99484732    -8207.2129    
    523700   304.14022     -139.11034      30070.215      0.99484732    -8291.5432    
    523800   292.63981      294.52052      30070.215      0.99484732    -8284.9938    
    523900   302.03525      135.36666      30070.215      0.99484732    -8243.6571    
    524000   306.40681      85.767109      30070.215      0.99484732    -8221.7529    
    524100   293.11765      11.694241      30070.215      0.99484732    -8225.0165    
    524200   306.74166      295.16316      30070.215      0.99484732    -8188.9301    
    524300   289.65773      78.70924       30070.215      0.99484732    -8180.4508    
    524400   304.6012      -269.47081      30070.215      0.99484732    -8151.5776    
    524500   307.55289     -258.90258      30070.215      0.99484732    -8105.3689    
    524600   306.0202       240.83297      30070.215      0.99484732    -8140.0962    
    524700   295.53369      113.32612      30070.215      0.99484732    -8222.1181    
    524800   300.71955     -44.021805      30070.215      0.99484732    -8253.1412    
    524900   294.22583      272.56341      30070.215      0.99484732    -8258.9531    
    525000   307.90756      350.16205      30070.215      0.99484732    -8239.8721    
    525100   298.05704     -384.06771      30070.215      0.99484732    -8251.6365    
    525200   293.26362     -82.192753      30070.215      0.99484732    -8300.091     
    525300   293.73207      18.841068      30070.215      0.99484732    -8335.0392    
    525400   292.71598     -108.14149      30070.215      0.99484732    -8310.2524    
    525500   294.76287      631.39503      30070.215      0.99484732    -8222.1998    
    525600   304.31328      146.00799      30070.215      0.99484732    -8201.2738    
    525700   299.24746     -407.15523      30070.215      0.99484732    -8200.5498    
    525800   295.90171      242.35242      30070.215      0.99484732    -8198.3953    
    525900   306.13411     -161.16758      30070.215      0.99484732    -8181.4502    
    526000   303.87118     -31.991241      30070.215      0.99484732    -8208.0206    
    526100   300.96252     -310.14382      30070.215      0.99484732    -8276.0905    
    526200   296.26881     -441.26776      30070.215      0.99484732    -8289.333     
    526300   300.01557      53.342666      30070.215      0.99484732    -8236.778     
    526400   307.00405      63.092344      30070.215      0.99484732    -8193.2752    
    526500   304.48428     -403.02191      30070.215      0.99484732    -8198.3133    
    526600   299.36226     -390.31176      30070.215      0.99484732    -8215.3517    
    526700   301.56716     -210.30877      30070.215      0.99484732    -8249.8688    
    526800   295.07879     -126.62451      30070.215      0.99484732    -8319.7822    
    526900   297.03009     -437.39054      30070.215      0.99484732    -8318.7328    
    527000   302.49145     -110.00055      30070.215      0.99484732    -8236.3591    
    527100   301.10142     -592.51626      30070.215      0.99484732    -8174.426     
    527200   311.28579     -179.18756      30070.215      0.99484732    -8171.027     
    527300   306.0689      -99.309391      30070.215      0.99484732    -8221.8605    
    527400   299.0956       383.90704      30070.215      0.99484732    -8262.9708    
    527500   300.25605      159.65469      30070.215      0.99484732    -8288.2259    
    527600   303.78233      305.42202      30070.215      0.99484732    -8297.6614    
    527700   295.60234      190.86741      30070.215      0.99484732    -8292.8709    
    527800   307.88912      407.35567      30070.215      0.99484732    -8212.9037    
    527900   309.75677      407.743        30070.215      0.99484732    -8191.1641    
    528000   302.35557     -206.63005      30070.215      0.99484732    -8252.4501    
    528100   299.07464     -14.182166      30070.215      0.99484732    -8283.9281    
    528200   301.81389      60.586762      30070.215      0.99484732    -8300.1187    
    528300   304.36915     -31.832032      30070.215      0.99484732    -8325.8207    
    528400   292.97895      575.20815      30070.215      0.99484732    -8405.1635    
    528500   290.21157     -34.649114      30070.215      0.99484732    -8443.1326    
    528600   300.69994      63.354148      30070.215      0.99484732    -8405.3198    
    528700   296.49414      164.24227      30070.215      0.99484732    -8366.1602    
    528800   297.5606       496.30783      30070.215      0.99484732    -8329.4995    
    528900   302.37634      415.27909      30070.215      0.99484732    -8298.8815    
    529000   299.15021      381.4309       30070.215      0.99484732    -8282.2838    
    529100   296.82109     -30.204744      30070.215      0.99484732    -8244.1221    
    529200   300.94085      123.67256      30070.215      0.99484732    -8175.1963    
    529300   303.23425      171.16334      30070.215      0.99484732    -8154.8611    
    529400   295.79403     -600.92573      30070.215      0.99484732    -8194.9762    
    529500   303.76807     -366.27223      30070.215      0.99484732    -8262.2395    
    529600   293.85267      59.803362      30070.215      0.99484732    -8289.5502    
    529700   299.17072     -681.01255      30070.215      0.99484732    -8270.5783    
    529800   300.04942     -44.591281      30070.215      0.99484732    -8248.0595    
    529900   299.78811     -273.67863      30070.215      0.99484732    -8290.9046    
    530000   286.1153      -1025.1466      30070.215      0.99484732    -8364.4153    
    530100   295.07266     -615.84236      30070.215      0.99484732    -8315.8231    
    530200   302.58137     -650.72549      30070.215      0.99484732    -8277.1635    
    530300   300.70478     -779.85045      30070.215      0.99484732    -8256.5394    
    530400   307.8018      -337.15997      30070.215      0.99484732    -8211.3156    
    530500   311.83248     -621.16477      30070.215      0.99484732    -8134.244     
    530600   308.27738     -449.10871      30070.215      0.99484732    -8141.0046    
    530700   299.58547     -261.5469       30070.215      0.99484732    -8184.9834    
    530800   301.50839     -28.794092      30070.215      0.99484732    -8209.7203    
    530900   300.24954     -509.01993      30070.215      0.99484732    -8242.2965    
    531000   293.31043     -276.30089      30070.215      0.99484732    -8267.4547    
    531100   297.79862     -803.67778      30070.215      0.99484732    -8285.6777    
    531200   299.95808     -375.79738      30070.215      0.99484732    -8298.1155    
    531300   310.07086     -420.17258      30070.215      0.99484732    -8290.9112    
    531400   299.49338      230.82894      30070.215      0.99484732    -8262.2508    
    531500   298.51468      45.851982      30070.215      0.99484732    -8201.9178    
    531600   308.74386     -308.11152      30070.215      0.99484732    -8180.935     
    531700   300.07041     -214.67357      30070.215      0.99484732    -8256.9363    
    531800   300.47878     -556.79276      30070.215      0.99484732    -8295.6478    
    531900   301.11641      319.12169      30070.215      0.99484732    -8296.7269    
    532000   301.51753     -95.207104      30070.215      0.99484732    -8306.4421    
    532100   289.99021     -201.30772      30070.215      0.99484732    -8363.3562    
    532200   290.43451     -411.84762      30070.215      0.99484732    -8347.3702    
    532300   299.78863     -195.36244      30070.215      0.99484732    -8272.8634    
    532400   304.87229     -391.7892       30070.215      0.99484732    -8240.0712    
    532500   306.48436     -22.644054      30070.215      0.99484732    -8217.9413    
    532600   302.85935      59.200025      30070.215      0.99484732    -8246.406     
    532700   294.96262      312.8289       30070.215      0.99484732    -8296.7153    
    532800   289.73968      307.2342       30070.215      0.99484732    -8333.3109    
    532900   294.52279     -522.56446      30070.215      0.99484732    -8372.677     
    533000   293.50707     -171.62129      30070.215      0.99484732    -8324.4714    
    533100   297.6918       316.95825      30070.215      0.99484732    -8253.0191    
    533200   293.96946     -276.60757      30070.215      0.99484732    -8209.8376    
    533300   304.21792     -187.23965      30070.215      0.99484732    -8158.1695    
    533400   311.49133      52.235409      30070.215      0.99484732    -8187.0061    
    533500   298.78693     -582.18585      30070.215      0.99484732    -8242.7762    
    533600   301.10724     -313.73064      30070.215      0.99484732    -8251.1385    
    533700   298.00696     -245.73676      30070.215      0.99484732    -8252.6417    
    533800   306.18585      199.45595      30070.215      0.99484732    -8210.0524    
    533900   303.56276      218.01441      30070.215      0.99484732    -8160.2992    
    534000   304.37469      123.35817      30070.215      0.99484732    -8162.8061    
    534100   299.27787      214.06952      30070.215      0.99484732    -8249.2252    
    534200   292.66504      392.04881      30070.215      0.99484732    -8274.6708    
    534300   307.22307      322.12645      30070.215      0.99484732    -8241.1144    
    534400   305.9688       301.11283      30070.215      0.99484732    -8226.2135    
    534500   301.38486      130.84274      30070.215      0.99484732    -8265.2168    
    534600   294.74446      248.3143       30070.215      0.99484732    -8313.0143    
    534700   293.20886      269.20849      30070.215      0.99484732    -8316.4413    
    534800   305.30419      840.9331       30070.215      0.99484732    -8263.5782    
    534900   305.39145      444.80996      30070.215      0.99484732    -8242.4159    
    535000   295.9639       238.43787      30070.215      0.99484732    -8286.7718    
    535100   288.38174     -125.83934      30070.215      0.99484732    -8340.6475    
    535200   300.48014     -327.02628      30070.215      0.99484732    -8278.0996    
    535300   305.16375      356.04428      30070.215      0.99484732    -8232.326     
    535400   306.41203     -562.67769      30070.215      0.99484732    -8212.3376    
    535500   304.78049      34.838024      30070.215      0.99484732    -8204.1628    
    535600   301.70397      479.94407      30070.215      0.99484732    -8249.6084    
    535700   298.25278      219.15834      30070.215      0.99484732    -8324.9297    
    535800   288.69013      12.038933      30070.215      0.99484732    -8327.7798    
    535900   302.3695      -69.61861       30070.215      0.99484732    -8270.7214    
    536000   303.53935      9.4412276      30070.215      0.99484732    -8240.2921    
    536100   315.32277     -83.881044      30070.215      0.99484732    -8229.4131    
    536200   298.3476       38.892694      30070.215      0.99484732    -8267.613     
    536300   299.53253     -451.6205       30070.215      0.99484732    -8274.5022    
    536400   296.65643      330.65631      30070.215      0.99484732    -8240.7371    
    536500   304.59172      183.74671      30070.215      0.99484732    -8195.0606    
    536600   303.14725      319.45457      30070.215      0.99484732    -8191.5247    
    536700   308.91734     -445.09124      30070.215      0.99484732    -8211.7767    
    536800   302.40719     -418.27126      30070.215      0.99484732    -8236.3952    
    536900   295.71552     -48.397674      30070.215      0.99484732    -8275.8712    
    537000   296.75378     -378.93298      30070.215      0.99484732    -8280.5612    
    537100   302.98188      116.5717       30070.215      0.99484732    -8205.1569    
    537200   305.04691     -1.4528904      30070.215      0.99484732    -8165.2181    
    537300   305.59373     -275.65291      30070.215      0.99484732    -8199.1979    
    537400   293.92215      703.78912      30070.215      0.99484732    -8231.2501    
    537500   308.33243      108.74149      30070.215      0.99484732    -8231.4494    
    537600   297.00565      75.525944      30070.215      0.99484732    -8279.2819    
    537700   290.03276     -15.354396      30070.215      0.99484732    -8356.8197    
    537800   293.8713       27.79985       30070.215      0.99484732    -8334.6918    
    537900   296.28432     -88.661511      30070.215      0.99484732    -8282.7388    
    538000   301.78237      239.25203      30070.215      0.99484732    -8241.4168    
    538100   301.42858     -264.30573      30070.215      0.99484732    -8224.3299    
    538200   311.56738      546.42117      30070.215      0.99484732    -8179.8002    
    538300   307.7761       541.41401      30070.215      0.99484732    -8172.5051    
    538400   288.51337     -23.438361      30070.215      0.99484732    -8263.6113    
    538500   290.08114      60.384807      30070.215      0.99484732    -8274.3827    
    538600   295.69089     -345.24034      30070.215      0.99484732    -8202.6503    
    538700   306.99639     -121.26358      30070.215      0.99484732    -8154.0633    
    538800   299.61574     -16.413211      30070.215      0.99484732    -8168.6678    
    538900   295.53794     -111.11807      30070.215      0.99484732    -8214.0327    
    539000   296.32026     -735.61931      30070.215      0.99484732    -8209.4417    
    539100   300.36982      608.74368      30070.215      0.99484732    -8115.7172    
    539200   306.14093     -21.342568      30070.215      0.99484732    -8118.3396    
    539300   299.01113      567.12924      30070.215      0.99484732    -8170.0985    
    539400   302.01684     -59.655419      30070.215      0.99484732    -8202.0246    
    539500   304.93493      107.36481      30070.215      0.99484732    -8225.7851    
    539600   292.48786     -180.93036      30070.215      0.99484732    -8249.4877    
    539700   304.31721     -344.8046       30070.215      0.99484732    -8234.352     
    539800   306.28547      446.20852      30070.215      0.99484732    -8235.8211    
    539900   295.54571      146.53786      30070.215      0.99484732    -8280.1571    
    540000   290.8059      -398.16745      30070.215      0.99484732    -8316.2218    
    540100   302.91367     -18.223602      30070.215      0.99484732    -8260.1679    
    540200   296.80409      397.2501       30070.215      0.99484732    -8210.3047    
    540300   302.14573     -14.171416      30070.215      0.99484732    -8218.1295    
    540400   295.42496     -190.49147      30070.215      0.99484732    -8270.3452    
    540500   296.15214     -1081.12        30070.215      0.99484732    -8330.9243    
    540600   296.16909     -672.93251      30070.215      0.99484732    -8313.3923    
    540700   301.619        188.93777      30070.215      0.99484732    -8205.8375    
    540800   305.96971     -447.95346      30070.215      0.99484732    -8181.1659    
    540900   301.6347       167.64841      30070.215      0.99484732    -8170.9148    
    541000   306.89478      331.0572       30070.215      0.99484732    -8180.5635    
    541100   300.32022      56.147829      30070.215      0.99484732    -8241.9964    
    541200   290.13194     -110.42047      30070.215      0.99484732    -8277.5327    
    541300   300.18734      179.85992      30070.215      0.99484732    -8236.9927    
    541400   307.83072      255.01846      30070.215      0.99484732    -8175.7959    
    541500   300.95649      204.69936      30070.215      0.99484732    -8212.0581    
    541600   300.48642     -440.98759      30070.215      0.99484732    -8318.7292    
    541700   300.18463      67.882101      30070.215      0.99484732    -8314.9522    
    541800   301.21132      447.23387      30070.215      0.99484732    -8258.9447    
    541900   303.57293      163.84815      30070.215      0.99484732    -8231.3937    
    542000   293.5379       3.130161       30070.215      0.99484732    -8258.1313    
    542100   292.68702     -193.72527      30070.215      0.99484732    -8320.3075    
    542200   299.54616     -1050.6179      30070.215      0.99484732    -8345.4429    
    542300   308.54406      168.04486      30070.215      0.99484732    -8311.3068    
    542400   303.92982      115.0331       30070.215      0.99484732    -8261.9007    
    542500   309.57807     -527.99682      30070.215      0.99484732    -8242.964     
    542600   295.16355     -132.35943      30070.215      0.99484732    -8290.7185    
    542700   284.16475      731.11301      30070.215      0.99484732    -8336.8433    
    542800   297.26385      181.78958      30070.215      0.99484732    -8355.3237    
    542900   290.67936     -275.30703      30070.215      0.99484732    -8391.8037    
    543000   300.92651      101.84932      30070.215      0.99484732    -8346.5359    
    543100   304.64094     -78.370129      30070.215      0.99484732    -8277.3266    
    543200   292.5382       340.1791       30070.215      0.99484732    -8247.3353    
    543300   304.51326      594.4093       30070.215      0.99484732    -8237.5041    
    543400   297.16742      586.80405      30070.215      0.99484732    -8275.7304    
    543500   294.13635     -145.18556      30070.215      0.99484732    -8350.4217    
    543600   294.19709      93.180559      30070.215      0.99484732    -8336.6086    
    543700   307.2908      -383.16683      30070.215      0.99484732    -8286.2063    
    543800   297.28904     -65.736078      30070.215      0.99484732    -8259.3244    
    543900   300.70565     -279.54934      30070.215      0.99484732    -8255.9448    
    544000   295.78583      216.10213      30070.215      0.99484732    -8260.211     
    544100   296.48945      233.23925      30070.215      0.99484732    -8279.8638    
    544200   294.07134      135.70019      30070.215      0.99484732    -8350.3181    
    544300   296.60692      239.96815      30070.215      0.99484732    -8394.77      
    544400   292.54273     -113.74121      30070.215      0.99484732    -8353.5876    
    544500   303.37612     -305.36744      30070.215      0.99484732    -8288.009     
    544600   301.82507      58.047781      30070.215      0.99484732    -8260.7369    
    544700   301.3819       160.47657      30070.215      0.99484732    -8241.8929    
    544800   305.11362      694.47206      30070.215      0.99484732    -8254.1412    
    544900   292.90398      663.06789      30070.215      0.99484732    -8335.6572    
    545000   294.89658      202.23064      30070.215      0.99484732    -8336.938     
    545100   296.97196      359.46852      30070.215      0.99484732    -8284.9716    
    545200   303.25132     -47.291         30070.215      0.99484732    -8257.6115    
    545300   305.82225      259.40801      30070.215      0.99484732    -8244.6298    
    545400   303.32045      68.077956      30070.215      0.99484732    -8232.911     
    545500   296.63489      493.35518      30070.215      0.99484732    -8188.6006    
    545600   302.46254      318.157        30070.215      0.99484732    -8134.4621    
    545700   304.77605     -214.72326      30070.215      0.99484732    -8155.226     
    545800   297.21951     -497.30397      30070.215      0.99484732    -8232.7513    
    545900   298.00895     -486.03346      30070.215      0.99484732    -8251.8368    
    546000   298.68734     -266.39608      30070.215      0.99484732    -8220.7486    
    546100   299.3345       437.71921      30070.215      0.99484732    -8192.6841    
    546200   297.23686      109.33635      30070.215      0.99484732    -8217.7972    
    546300   293.98267      167.58826      30070.215      0.99484732    -8297.829     
    546400   291.77721      34.827556      30070.215      0.99484732    -8320.5123    
    546500   290.91585     -705.91386      30070.215      0.99484732    -8265.2845    
    546600   299.93013     -470.4043       30070.215      0.99484732    -8200.292     
    546700   308.36965      135.09413      30070.215      0.99484732    -8184.1296    
    546800   298.81992      389.8066       30070.215      0.99484732    -8207.7164    
    546900   293.65511      112.35381      30070.215      0.99484732    -8262.9872    
    547000   294.05875      160.87821      30070.215      0.99484732    -8287.8621    
    547100   301.70151      460.44407      30070.215      0.99484732    -8222.2508    
    547200   305.26533      513.28739      30070.215      0.99484732    -8167.6451    
    547300   296.96374     -332.18098      30070.215      0.99484732    -8181.5982    
    547400   295.49152      310.27358      30070.215      0.99484732    -8197.5472    
    547500   303.63826      23.596812      30070.215      0.99484732    -8190.0695    
    547600   304.16857      295.03724      30070.215      0.99484732    -8158.7023    
    547700   301.11343     -633.37938      30070.215      0.99484732    -8137.9889    
    547800   304.21944     -10.079964      30070.215      0.99484732    -8142.6738    
    547900   304.09517     -735.87567      30070.215      0.99484732    -8208.3535    
    548000   303.38404      152.66088      30070.215      0.99484732    -8243.9111    
    548100   295.14265     -104.94584      30070.215      0.99484732    -8242.2924    
    548200   312.42742      74.082641      30070.215      0.99484732    -8200.9521    
    548300   317.84131      165.08047      30070.215      0.99484732    -8133.422     
    548400   305.59986     -33.050623      30070.215      0.99484732    -8130.6363    
    548500   295.27326     -504.58317      30070.215      0.99484732    -8196.1671    
    548600   303.46927      334.88059      30070.215      0.99484732    -8233.6726    
    548700   293.72906     -146.51291      30070.215      0.99484732    -8274.3596    
    548800   286.81187     -450.1965       30070.215      0.99484732    -8365.5135    
    548900   290.85283     -678.43831      30070.215      0.99484732    -8333.7584    
    549000   296.3144      -21.325778      30070.215      0.99484732    -8277.2245    
    549100   300.54849      293.91089      30070.215      0.99484732    -8265.5482    
    549200   308.60672     -103.62828      30070.215      0.99484732    -8250.4907    
    549300   296.8869       518.29496      30070.215      0.99484732    -8281.3026    
    549400   296.00297     -191.20938      30070.215      0.99484732    -8342.2151    
    549500   295.70071      430.24813      30070.215      0.99484732    -8338.076     
    549600   297.34593      300.57316      30070.215      0.99484732    -8269.1863    
    549700   303.87891      155.39249      30070.215      0.99484732    -8209.3121    
    549800   300.98415     -317.64677      30070.215      0.99484732    -8209.9377    
    549900   299.89605      443.7457       30070.215      0.99484732    -8204.9638    
    550000   299.75411      282.02314      30070.215      0.99484732    -8141.5157    
    550100   305.56966      85.410566      30070.215      0.99484732    -8084.7961    
    550200   303.41812      269.26459      30070.215      0.99484732    -8114.9519    
    550300   304.15855     -437.98037      30070.215      0.99484732    -8166.2012    
    550400   298.7769      -40.573874      30070.215      0.99484732    -8184.1032    
    550500   302.84604      4.6924612      30070.215      0.99484732    -8198.2895    
    550600   293.20503      572.35619      30070.215      0.99484732    -8187.6113    
    550700   311.63231      155.23374      30070.215      0.99484732    -8097.9718    
    550800   304.79553      236.88608      30070.215      0.99484732    -8109.1983    
    550900   295.23167      716.85827      30070.215      0.99484732    -8162.0437    
    551000   303.39611      323.93188      30070.215      0.99484732    -8180.1026    
    551100   297.8379       598.49419      30070.215      0.99484732    -8208.5261    
    551200   299.18329     -152.84137      30070.215      0.99484732    -8244.6116    
    551300   290.53384     -298.0179       30070.215      0.99484732    -8354.4619    
    551400   293.77848     -548.38649      30070.215      0.99484732    -8371.1491    
    551500   294.4386       3.1874232      30070.215      0.99484732    -8316.8296    
    551600   296.16825      439.82063      30070.215      0.99484732    -8268.9483    
    551700   299.35426      257.35054      30070.215      0.99484732    -8242.4592    
    551800   300.73068     -604.15834      30070.215      0.99484732    -8241.5589    
    551900   297.57932     -345.85208      30070.215      0.99484732    -8217.6201    
    552000   308.32866      64.415343      30070.215      0.99484732    -8147.4516    
    552100   299.7014       444.97682      30070.215      0.99484732    -8182.5543    
    552200   296.85234      331.23037      30070.215      0.99484732    -8228.7129    
    552300   295.73343      386.44199      30070.215      0.99484732    -8239.9243    
    552400   302.37886      140.51125      30070.215      0.99484732    -8269.7894    
    552500   299.69966     -209.74425      30070.215      0.99484732    -8337.7261    
    552600   294.75224      203.38602      30070.215      0.99484732    -8360.3881    
    552700   298.86049      724.29649      30070.215      0.99484732    -8302.348     
    552800   305.40498     -277.38389      30070.215      0.99484732    -8265.1161    
    552900   307.03319     -190.69824      30070.215      0.99484732    -8277.5055    
    553000   301.08953     -22.996634      30070.215      0.99484732    -8281.1648    
    553100   302.49575     -48.219611      30070.215      0.99484732    -8283.0478    
    553200   302.93297      197.76166      30070.215      0.99484732    -8294.9541    
    553300   297.7558      -536.4952       30070.215      0.99484732    -8325.9438    
    553400   295.04127      172.48062      30070.215      0.99484732    -8343.6441    
    553500   298.48073      387.35932      30070.215      0.99484732    -8265.0853    
    553600   307.05703      565.9942       30070.215      0.99484732    -8247.113     
    553700   300.76406      164.04213      30070.215      0.99484732    -8295.9305    
    553800   289.31291     -450.84969      30070.215      0.99484732    -8341.721     
    553900   301.61165      117.11929      30070.215      0.99484732    -8318.4675    
    554000   296.90445      782.34327      30070.215      0.99484732    -8284.1748    
    554100   302.76299      189.52061      30070.215      0.99484732    -8289.0963    
    554200   295.83637     -104.25714      30070.215      0.99484732    -8307.015     
    554300   299.73963     -38.955818      30070.215      0.99484732    -8279.5967    
    554400   305.6509       137.56532      30070.215      0.99484732    -8192.2521    
    554500   300.68216      245.63519      30070.215      0.99484732    -8194.8395    
    554600   297.01438     -241.48829      30070.215      0.99484732    -8220.7535    
    554700   295.97808     -446.41402      30070.215      0.99484732    -8281.6154    
    554800   293.01119      48.445654      30070.215      0.99484732    -8339.4931    
    554900   294.44022      12.275795      30070.215      0.99484732    -8324.0581    
    555000   301.15263     -430.16674      30070.215      0.99484732    -8290.3935    
    555100   300.74847      231.1166       30070.215      0.99484732    -8287.5294    
    555200   293.33678     -372.60085      30070.215      0.99484732    -8316.7027    
    555300   284.28221     -87.964124      30070.215      0.99484732    -8323.2708    
    555400   296.03861      562.21757      30070.215      0.99484732    -8239.6218    
    555500   307.25026     -681.65831      30070.215      0.99484732    -8215.785     
    555600   304.93527     -659.08765      30070.215      0.99484732    -8265.4002    
    555700   295.81463     -658.90844      30070.215      0.99484732    -8295.6016    
    555800   308.49294     -349.50166      30070.215      0.99484732    -8271.2923    
    555900   293.00714     -254.98058      30070.215      0.99484732    -8263.6771    
    556000   304.59837      267.22874      30070.215      0.99484732    -8183.0085    
    556100   308.15484     -642.64909      30070.215      0.99484732    -8146.7668    
    556200   304.26789     -100.05488      30070.215      0.99484732    -8191.346     
    556300   305.4281       72.789535      30070.215      0.99484732    -8225.9926    
    556400   296.98387     -271.23123      30070.215      0.99484732    -8236.9877    
    556500   301.01037     -177.16418      30070.215      0.99484732    -8221.4068    
    556600   303.52597     -366.28172      30070.215      0.99484732    -8210.3502    
    556700   295.38149      455.1636       30070.215      0.99484732    -8234.1777    
    556800   294.36793     -141.22549      30070.215      0.99484732    -8297.2638    
    556900   293.48511      168.48467      30070.215      0.99484732    -8362.8485    
    557000   292.90641     -423.46801      30070.215      0.99484732    -8335.5869    
    557100   301.904       -202.81048      30070.215      0.99484732    -8267.4432    
    557200   301.22454     -251.80432      30070.215      0.99484732    -8250.0627    
    557300   296.28526      165.97358      30070.215      0.99484732    -8254.3752    
    557400   298.99126      369.2792       30070.215      0.99484732    -8278.7973    
    557500   294.97689     -73.360308      30070.215      0.99484732    -8359.6042    
    557600   292.94874     -191.5395       30070.215      0.99484732    -8367.8288    
    557700   309.29614     -139.24203      30070.215      0.99484732    -8317.1442    
    557800   307.27713      282.2037       30070.215      0.99484732    -8282.3248    
    557900   297.52765      406.26973      30070.215      0.99484732    -8297.9645    
    558000   302.02998     -94.243912      30070.215      0.99484732    -8315.993     
    558100   299.21667      122.35123      30070.215      0.99484732    -8324.4558    
    558200   302.69059      278.62049      30070.215      0.99484732    -8332.8846    
    558300   295.57942      204.68123      30070.215      0.99484732    -8356.4197    
    558400   305.56054     -664.57948      30070.215      0.99484732    -8337.8795    
    558500   291.11853     -215.10177      30070.215      0.99484732    -8275.0161    
    558600   297.40058     -541.9987       30070.215      0.99484732    -8213.885     
    558700   307.9459       173.06842      30070.215      0.99484732    -8194.5708    
    558800   304.96693     -476.31633      30070.215      0.99484732    -8225.1191    
    558900   292.45298     -116.9858       30070.215      0.99484732    -8298.8756    
    559000   300.85403     -296.59845      30070.215      0.99484732    -8306.0213    
    559100   305.47834      134.92609      30070.215      0.99484732    -8298.0231    
    559200   290.07372      83.900952      30070.215      0.99484732    -8287.8291    
    559300   298.15539     -511.96471      30070.215      0.99484732    -8236.5798    
    559400   310.38664     -142.42952      30070.215      0.99484732    -8161.2537    
    559500   306.18181     -353.26181      30070.215      0.99484732    -8185.0813    
    559600   303.76391      483.42617      30070.215      0.99484732    -8228.9617    
    559700   297.23331      90.277654      30070.215      0.99484732    -8259.1727    
    559800   297.08343     -774.20945      30070.215      0.99484732    -8267.3933    
    559900   306.88892      141.31376      30070.215      0.99484732    -8248.5079    
    560000   300.66799      761.84657      30070.215      0.99484732    -8216.6928    
    560100   300.23547      154.45231      30070.215      0.99484732    -8248.7183    
    560200   285.31259     -1.569306       30070.215      0.99484732    -8281.5067    
    560300   300.27412     -90.361326      30070.215      0.99484732    -8219.1014    
    560400   304.46942      689.47519      30070.215      0.99484732    -8195.0629    
    560500   305.39979      146.21753      30070.215      0.99484732    -8236.9618    
    560600   299.69137     -350.05823      30070.215      0.99484732    -8266.1146    
    560700   297.01332     -397.87065      30070.215      0.99484732    -8278.2995    
    560800   305.02458     -239.49877      30070.215      0.99484732    -8264.5067    
    560900   296.72486      179.68217      30070.215      0.99484732    -8247.0296    
    561000   303.57302      688.35476      30070.215      0.99484732    -8214.6378    
    561100   309.84104     -12.278114      30070.215      0.99484732    -8221.5602    
    561200   289.03024     -271.53966      30070.215      0.99484732    -8286.6436    
    561300   297.05664     -217.55335      30070.215      0.99484732    -8254.1261    
    561400   305.10365      355.80312      30070.215      0.99484732    -8209.6879    
    561500   297.54664      499.2835       30070.215      0.99484732    -8222.4872    
    561600   300.77717      346.17177      30070.215      0.99484732    -8241.3793    
    561700   298.32903      36.830667      30070.215      0.99484732    -8265.2389    
    561800   292.17353      130.30499      30070.215      0.99484732    -8361.808     
    561900   294.17535     -67.756665      30070.215      0.99484732    -8387.1677    
    562000   301.14267      63.016936      30070.215      0.99484732    -8349.6848    
    562100   296.10605      503.76108      30070.215      0.99484732    -8321.7524    
    562200   302.88038      129.0353       30070.215      0.99484732    -8300.6037    
    562300   309.75489     -272.65353      30070.215      0.99484732    -8231.2764    
    562400   298.8134       370.42908      30070.215      0.99484732    -8210.2409    
    562500   307.71419      318.63823      30070.215      0.99484732    -8270.2593    
    562600   299.10917     -171.83334      30070.215      0.99484732    -8305.3076    
    562700   303.4555      -282.30106      30070.215      0.99484732    -8300.5121    
    562800   299.203        391.70306      30070.215      0.99484732    -8285.2668    
    562900   310.81602      806.98187      30070.215      0.99484732    -8227.8312    
    563000   302.36985     -31.470308      30070.215      0.99484732    -8180.9602    
    563100   307.84596     -220.52344      30070.215      0.99484732    -8194.4742    
    563200   305.22447     -508.32629      30070.215      0.99484732    -8218.359     
    563300   297.37194      56.485401      30070.215      0.99484732    -8218.3798    
    563400   295.63582     -654.61029      30070.215      0.99484732    -8215.0738    
    563500   306.61307     -190.93911      30070.215      0.99484732    -8218.0166    
    563600   302.4158      -263.02194      30070.215      0.99484732    -8251.8599    
    563700   287.55357     -298.19977      30070.215      0.99484732    -8299.9185    
    563800   301.00529      17.306827      30070.215      0.99484732    -8290.2541    
    563900   293.98382     -411.25485      30070.215      0.99484732    -8236.1197    
    564000   301.55057      113.71886      30070.215      0.99484732    -8155.135     
    564100   304.29175      217.85684      30070.215      0.99484732    -8134.823     
    564200   304.73621     -287.43331      30070.215      0.99484732    -8170.5737    
    564300   300.05831     -70.423112      30070.215      0.99484732    -8235.6576    
    564400   296.8322      -113.31904      30070.215      0.99484732    -8283.8429    
    564500   293.27612      86.276133      30070.215      0.99484732    -8280.63      
    564600   303.19708     -444.22671      30070.215      0.99484732    -8229.0693    
    564700   301.33876      19.76896       30070.215      0.99484732    -8211.0068    
    564800   305.41648     -268.59681      30070.215      0.99484732    -8242.0628    
    564900   301.6849      -312.65127      30070.215      0.99484732    -8275.8295    
    565000   294.07275      88.75809       30070.215      0.99484732    -8258.8991    
    565100   307.36535     -529.73532      30070.215      0.99484732    -8224.9053    
    565200   297.65973     -67.949755      30070.215      0.99484732    -8237.6726    
    565300   290.06759      233.98992      30070.215      0.99484732    -8295.0375    
    565400   294.76337     -183.33466      30070.215      0.99484732    -8370.9875    
    565500   292.96502      67.705307      30070.215      0.99484732    -8369.6376    
    565600   296.24463      2.5284606      30070.215      0.99484732    -8329.8381    
    565700   295.26743     -601.16899      30070.215      0.99484732    -8293.2431    
    565800   302.57399      173.87112      30070.215      0.99484732    -8236.9161    
    565900   305.17659      261.33115      30070.215      0.99484732    -8222.7796    
    566000   296.09836      119.09028      30070.215      0.99484732    -8258.1749    
    566100   304.38992     -38.090995      30070.215      0.99484732    -8280.4532    
    566200   294.65878      735.81361      30070.215      0.99484732    -8358.3902    
    566300   297.05588      317.12918      30070.215      0.99484732    -8408.5757    
    566400   301.56414     -410.12774      30070.215      0.99484732    -8382.5033    
    566500   291.65854      215.01252      30070.215      0.99484732    -8350.2599    
    566600   305.32026      30.300451      30070.215      0.99484732    -8312.7121    
    566700   295.0406       75.425549      30070.215      0.99484732    -8320.6164    
    566800   305.5101      -94.184058      30070.215      0.99484732    -8316.5995    
    566900   298.97391      402.78173      30070.215      0.99484732    -8322.2135    
    567000   297.95685      80.253957      30070.215      0.99484732    -8369.7657    
    567100   288.59497      23.403451      30070.215      0.99484732    -8388.6881    
    567200   299.85022      171.27798      30070.215      0.99484732    -8311.4818    
    567300   298.11189      383.45364      30070.215      0.99484732    -8284.5474    
    567400   299.81364      212.39506      30070.215      0.99484732    -8273.7944    
    567500   303.95332     -235.95976      30070.215      0.99484732    -8281.6629    
    567600   302.77061     -351.34194      30070.215      0.99484732    -8292.6393    
    567700   301.61833      214.20964      30070.215      0.99484732    -8269.7749    
    567800   300.27238      272.79243      30070.215      0.99484732    -8226.2125    
    567900   301.93413      105.93663      30070.215      0.99484732    -8178.1055    
    568000   303.12895      167.30635      30070.215      0.99484732    -8144.6102    
    568100   299.42044      315.24936      30070.215      0.99484732    -8214.2358    
    568200   297.89493     -103.06413      30070.215      0.99484732    -8271.4177    
    568300   295.40484      976.81937      30070.215      0.99484732    -8261.5344    
    568400   295.79172      368.68615      30070.215      0.99484732    -8225.5258    
    568500   306.49603      704.15603      30070.215      0.99484732    -8202.7436    
    568600   305.34142     -72.147206      30070.215      0.99484732    -8182.4486    
    568700   300.90867      341.0442       30070.215      0.99484732    -8216.2001    
    568800   296.3063       239.7304       30070.215      0.99484732    -8293.7897    
    568900   300.5052      -126.77878      30070.215      0.99484732    -8322.1456    
    569000   298.12638      191.28931      30070.215      0.99484732    -8308.1624    
    569100   298.25075      193.14089      30070.215      0.99484732    -8239.5586    
    569200   311.15569      567.20937      30070.215      0.99484732    -8204.312     
    569300   290.58537     -276.10887      30070.215      0.99484732    -8250.9357    
    569400   297.82958      158.93315      30070.215      0.99484732    -8268.6014    
    569500   303.38725      151.64539      30070.215      0.99484732    -8250.3687    
    569600   307.69287     -30.221574      30070.215      0.99484732    -8177.0991    
    569700   304.55724      111.53526      30070.215      0.99484732    -8153.5726    
    569800   295.21702     -303.00701      30070.215      0.99484732    -8232.6418    
    569900   300.31374     -52.837521      30070.215      0.99484732    -8278.9449    
    570000   299.32573     -23.85277       30070.215      0.99484732    -8255.7586    
    570100   303.28603      1057.4303      30070.215      0.99484732    -8215.6227    
    570200   301.90016      430.89233      30070.215      0.99484732    -8252.8147    
    570300   294.83801      487.21164      30070.215      0.99484732    -8332.9191    
    570400   295.03507      277.13108      30070.215      0.99484732    -8327.3005    
    570500   289.58217     -463.37167      30070.215      0.99484732    -8284.7816    
    570600   300.68855      130.27651      30070.215      0.99484732    -8244.0831    
    570700   295.24095      36.709466      30070.215      0.99484732    -8220.202     
    570800   301.14816      222.67504      30070.215      0.99484732    -8187.0489    
    570900   306.56486      240.29409      30070.215      0.99484732    -8193.914     
    571000   296.20012      275.19309      30070.215      0.99484732    -8296.0709    
    571100   288.2247       377.49117      30070.215      0.99484732    -8321.0576    
    571200   303.37878     -188.35798      30070.215      0.99484732    -8278.065     
    571300   299.94388      26.691421      30070.215      0.99484732    -8235.0527    
    571400   301.42178     -5.1365653      30070.215      0.99484732    -8221.7984    
    571500   302.6182       363.02068      30070.215      0.99484732    -8185.9698    
    571600   311.15605      638.49916      30070.215      0.99484732    -8118.6749    
    571700   307.24003      559.12497      30070.215      0.99484732    -8135.163     
    571800   302.35232      32.190562      30070.215      0.99484732    -8221.7148    
    571900   297.63712     -320.34148      30070.215      0.99484732    -8244.5768    
    572000   305.44482      163.55586      30070.215      0.99484732    -8237.3462    
    572100   296.75085      43.167723      30070.215      0.99484732    -8245.5718    
    572200   293.75016     -425.24054      30070.215      0.99484732    -8299.8886    
    572300   291.32206     -848.07608      30070.215      0.99484732    -8330.6829    
    572400   298.62836     -79.346855      30070.215      0.99484732    -8284.4271    
    572500   299.83412     -99.292059      30070.215      0.99484732    -8214.8695    
    572600   294.15111     -247.5119       30070.215      0.99484732    -8204.7773    
    572700   299.88809     -66.572474      30070.215      0.99484732    -8190.7904    
    572800   306.4554      -524.46254      30070.215      0.99484732    -8201.6859    
    572900   294.6293      -628.65934      30070.215      0.99484732    -8297.1096    
    573000   302.61381     -591.29428      30070.215      0.99484732    -8317.4047    
    573100   299.89108     -68.726051      30070.215      0.99484732    -8303.8136    
    573200   302.88376      388.18809      30070.215      0.99484732    -8270.0977    
    573300   307.81505      352.1891       30070.215      0.99484732    -8245.5848    
    573400   297.32315      566.2513       30070.215      0.99484732    -8221.7187    
    573500   300.3271      -20.713526      30070.215      0.99484732    -8228.7472    
    573600   300.21074     -51.495181      30070.215      0.99484732    -8284.2838    
    573700   300.19594      228.63698      30070.215      0.99484732    -8324.3264    
    573800   299.01156     -390.33421      30070.215      0.99484732    -8349.2529    
    573900   297.06554     -543.65611      30070.215      0.99484732    -8291.8966    
    574000   303.36185     -46.161952      30070.215      0.99484732    -8224.7226    
    574100   295.51725      314.95956      30070.215      0.99484732    -8234.9439    
    574200   308.80248     -118.65322      30070.215      0.99484732    -8247.5683    
    574300   293.50008     -147.17012      30070.215      0.99484732    -8287.7558    
    574400   302.54533      20.07165       30070.215      0.99484732    -8314.4963    
    574500   296.41209     -254.95087      30070.215      0.99484732    -8364.2061    
    574600   286.78145     -204.83489      30070.215      0.99484732    -8385.7578    
    574700   301.81696     -17.30055       30070.215      0.99484732    -8294.957     
    574800   297.73466     -199.74036      30070.215      0.99484732    -8280.7722    
    574900   299.26497     -84.844854      30070.215      0.99484732    -8312.3087    
    575000   297.88128      583.46508      30070.215      0.99484732    -8381.8534    
    575100   289.57741     -102.95999      30070.215      0.99484732    -8384.0863    
    575200   296.07308     -478.19867      30070.215      0.99484732    -8338.9116    
    575300   297.83538     -157.5768       30070.215      0.99484732    -8303.503     
    575400   294.93762     -302.83874      30070.215      0.99484732    -8266.3456    
    575500   298.49922     -509.56504      30070.215      0.99484732    -8220.7067    
    575600   304.9463      -80.151723      30070.215      0.99484732    -8204.2252    
    575700   300.0453       406.5375       30070.215      0.99484732    -8239.8976    
    575800   292.6615       173.08349      30070.215      0.99484732    -8284.9076    
    575900   299.08444     -355.28797      30070.215      0.99484732    -8290.4295    
    576000   300.89049     -447.84224      30070.215      0.99484732    -8279.2988    
    576100   295.29641     -462.1498       30070.215      0.99484732    -8287.9848    
    576200   294.23023      361.47706      30070.215      0.99484732    -8337.2745    
    576300   293.04861     -477.04084      30070.215      0.99484732    -8404.167     
    576400   299.85621     -164.41012      30070.215      0.99484732    -8380.22      
    576500   302.32666      1010.8553      30070.215      0.99484732    -8336.8749    
    576600   294.71577      368.26204      30070.215      0.99484732    -8326.4342    
    576700   302.18121      666.7041       30070.215      0.99484732    -8327.9125    
    576800   289.24991      266.96632      30070.215      0.99484732    -8342.7879    
    576900   303.83691     -929.37458      30070.215      0.99484732    -8267.8235    
    577000   307.16016     -439.96575      30070.215      0.99484732    -8207.1727    
    577100   309.74669     -231.43576      30070.215      0.99484732    -8217.0301    
    577200   294.62393     -457.37379      30070.215      0.99484732    -8268.4529    
    577300   300.05978     -182.42631      30070.215      0.99484732    -8291.8013    
    577400   303.22612      332.97397      30070.215      0.99484732    -8349.0089    
    577500   288.15194      217.20193      30070.215      0.99484732    -8404.9535    
    577600   299.21171      195.64984      30070.215      0.99484732    -8363.04      
    577700   301.76877     -121.04631      30070.215      0.99484732    -8311.4744    
    577800   304.25454      225.72211      30070.215      0.99484732    -8297.0395    
    577900   302.9377      -105.4798       30070.215      0.99484732    -8280.7924    
    578000   299.65992      25.691777      30070.215      0.99484732    -8208.7209    
    578100   310.83085      210.27812      30070.215      0.99484732    -8155.0589    
    578200   306.80633     -431.71998      30070.215      0.99484732    -8220.443     
    578300   304.65771      292.36042      30070.215      0.99484732    -8275.7007    
    578400   294.07397      340.60938      30070.215      0.99484732    -8320.6216    
    578500   297.97536     -458.8462       30070.215      0.99484732    -8323.2723    
    578600   301.22033      433.27111      30070.215      0.99484732    -8261.5531    
    578700   302.93187      405.68963      30070.215      0.99484732    -8228.4395    
    578800   291.15551     -785.88511      30070.215      0.99484732    -8305.7438    
    578900   285.91316     -327.02096      30070.215      0.99484732    -8338.6107    
    579000   298.82062     -316.32903      30070.215      0.99484732    -8313.3544    
    579100   301.69383      317.60196      30070.215      0.99484732    -8311.5878    
    579200   295.71679     -111.59098      30070.215      0.99484732    -8304.9846    
    579300   297.12177     -742.18696      30070.215      0.99484732    -8293.3982    
    579400   303.64854     -644.92107      30070.215      0.99484732    -8232.8436    
    579500   309.09908      116.93258      30070.215      0.99484732    -8186.7939    
    579600   304.04125     -369.24156      30070.215      0.99484732    -8252.1966    
    579700   297.99588      383.03368      30070.215      0.99484732    -8290.2043    
    579800   300.42978     -108.9543       30070.215      0.99484732    -8282.0265    
    579900   297.90312      239.28105      30070.215      0.99484732    -8243.4316    
    580000   312.78493      426.635        30070.215      0.99484732    -8190.6156    
    580100   296.35701      64.682193      30070.215      0.99484732    -8254.2866    
    580200   297.01141     -161.05211      30070.215      0.99484732    -8303.4428    
    580300   303.04026     -634.37503      30070.215      0.99484732    -8289.4724    
    580400   298.27026      1226.9403      30070.215      0.99484732    -8265.6719    
    580500   301.95442      74.932684      30070.215      0.99484732    -8289.4639    
    580600   298.08325     -246.11082      30070.215      0.99484732    -8348.0082    
    580700   296.59457      46.924708      30070.215      0.99484732    -8337.5045    
    580800   299.42026      43.042707      30070.215      0.99484732    -8257.4091    
    580900   301.49939      771.49545      30070.215      0.99484732    -8216.4576    
    581000   302.30182      639.84906      30070.215      0.99484732    -8246.4511    
    581100   299.20907     -44.275157      30070.215      0.99484732    -8285.8985    
    581200   301.3311       197.77188      30070.215      0.99484732    -8298.7822    
    581300   297.91747     -532.57807      30070.215      0.99484732    -8335.5552    
    581400   290.09746     -210.9067       30070.215      0.99484732    -8393.9389    
    581500   290.3743       332.13792      30070.215      0.99484732    -8362.0989    
    581600   293.38207      506.99086      30070.215      0.99484732    -8284.9935    
    581700   299.08963      828.58996      30070.215      0.99484732    -8234.4536    
    581800   296.17858      310.66313      30070.215      0.99484732    -8199.3507    
    581900   304.48419      429.37172      30070.215      0.99484732    -8178.7791    
    582000   298.57217      303.19684      30070.215      0.99484732    -8236.0076    
    582100   293.11169      679.69331      30070.215      0.99484732    -8296.6989    
    582200   299.11995      94.77223       30070.215      0.99484732    -8284.9812    
    582300   300.02823      523.34739      30070.215      0.99484732    -8239.6755    
    582400   305.40674     -201.50519      30070.215      0.99484732    -8231.2107    
    582500   292.95698     -148.14212      30070.215      0.99484732    -8252.0238    
    582600   298.65253     -42.153087      30070.215      0.99484732    -8251.9599    
    582700   299.00302      687.78989      30070.215      0.99484732    -8216.5427    
    582800   299.51143      831.41774      30070.215      0.99484732    -8234.321     
    582900   296.98308      159.27436      30070.215      0.99484732    -8285.5532    
    583000   291.96434     -225.56684      30070.215      0.99484732    -8332.1185    
    583100   294.08542      323.52092      30070.215      0.99484732    -8339.7646    
    583200   298.49165      127.96277      30070.215      0.99484732    -8243.1125    
    583300   302.19087      344.63868      30070.215      0.99484732    -8221.7115    
    583400   299.15096     -346.258        30070.215      0.99484732    -8255.7295    
    583500   297.43234     -66.177463      30070.215      0.99484732    -8272.1628    
    583600   299.97591     -268.23634      30070.215      0.99484732    -8278.0048    
    583700   292.87202      245.76944      30070.215      0.99484732    -8261.013     
    583800   302.69984      64.380704      30070.215      0.99484732    -8205.4297    
    583900   306.96319      131.3733       30070.215      0.99484732    -8170.4131    
    584000   297.55066     -587.93503      30070.215      0.99484732    -8218.0427    
    584100   293.84765     -897.73277      30070.215      0.99484732    -8267.443     
    584200   306.29335     -299.13471      30070.215      0.99484732    -8250.6282    
    584300   307.43901     -375.52202      30070.215      0.99484732    -8253.0784    
    584400   304.53885     -335.62745      30070.215      0.99484732    -8251.2712    
    584500   296.13865      53.776324      30070.215      0.99484732    -8277.6718    
    584600   302.57279     -493.82199      30070.215      0.99484732    -8286.8967    
    584700   302.18785     -233.20222      30070.215      0.99484732    -8217.6908    
    584800   310.09315     -8.8160901      30070.215      0.99484732    -8182.4808    
    584900   294.91161      68.791134      30070.215      0.99484732    -8219.9887    
    585000   303.79423     -73.766039      30070.215      0.99484732    -8253.0745    
    585100   289.15569     -66.74658       30070.215      0.99484732    -8310.6856    
    585200   280.24841     -78.341891      30070.215      0.99484732    -8402.0959    
    585300   282.10091     -469.7546       30070.215      0.99484732    -8403.5681    
    585400   290.6988       157.74613      30070.215      0.99484732    -8351.3409    
    585500   298.64231      472.25982      30070.215      0.99484732    -8301.7172    
    585600   307.43703      387.67068      30070.215      0.99484732    -8248.6157    
    585700   300.7754      -26.729281      30070.215      0.99484732    -8254.7012    
    585800   296.86062     -409.79998      30070.215      0.99484732    -8300.8048    
    585900   285.3439      -246.61807      30070.215      0.99484732    -8368.615     
    586000   294.1116      -433.98257      30070.215      0.99484732    -8331.8414    
    586100   311.58529      358.37702      30070.215      0.99484732    -8244.3862    
    586200   296.73922      212.63904      30070.215      0.99484732    -8272.1013    
    586300   292.56558     -5.7875569      30070.215      0.99484732    -8295.8665    
    586400   296.18853     -818.11154      30070.215      0.99484732    -8292.7062    
    586500   307.38378     -328.38661      30070.215      0.99484732    -8225.6427    
    586600   304.61261     -236.93404      30070.215      0.99484732    -8212.6225    
    586700   298.77884     -120.65029      30070.215      0.99484732    -8264.3572    
    586800   297.63357     -110.90366      30070.215      0.99484732    -8283.8526    
    586900   306.67245     -286.29578      30070.215      0.99484732    -8286.6418    
    587000   297.30117     -7.1867367      30070.215      0.99484732    -8326.3463    
    587100   296.41308     -834.01734      30070.215      0.99484732    -8368.2798    
    587200   291.57545      56.676118      30070.215      0.99484732    -8367.6914    
    587300   307.58321     -503.83954      30070.215      0.99484732    -8275.0776    
    587400   304.67782      105.84322      30070.215      0.99484732    -8259.657     
    587500   298.32539      677.1378       30070.215      0.99484732    -8287.4161    
    587600   297.37732      729.83283      30070.215      0.99484732    -8358.7463    
    587700   299.18262      211.30091      30070.215      0.99484732    -8364.5995    
    587800   297.69271      544.43709      30070.215      0.99484732    -8320.5239    
    587900   299.64355      79.247883      30070.215      0.99484732    -8296.7561    
    588000   295.57265      10.648942      30070.215      0.99484732    -8281.6846    
    588100   305.14846      158.5184       30070.215      0.99484732    -8261.8634    
    588200   300.72306     -29.551545      30070.215      0.99484732    -8270.51      
    588300   300.92192      390.67564      30070.215      0.99484732    -8273.0385    
    588400   297.31357      17.024952      30070.215      0.99484732    -8265.1975    
    588500   298.59264      264.11715      30070.215      0.99484732    -8246.405     
    588600   308.88877     -36.813514      30070.215      0.99484732    -8252.4544    
    588700   295.18945     -1.9388934      30070.215      0.99484732    -8320.2364    
    588800   293.20844      88.0027        30070.215      0.99484732    -8324.6022    
    588900   307.57764      180.17843      30070.215      0.99484732    -8272.7427    
    589000   303.97845      206.60507      30070.215      0.99484732    -8246.1193    
    589100   301.36076      366.96087      30070.215      0.99484732    -8254.2324    
    589200   295.54971     -909.45037      30070.215      0.99484732    -8252.6044    
    589300   302.11018     -377.58574      30070.215      0.99484732    -8194.5924    
    589400   303.65554      164.28193      30070.215      0.99484732    -8157.711     
    589500   299.50033      243.63568      30070.215      0.99484732    -8192.7381    
    589600   305.37237     -395.4135       30070.215      0.99484732    -8204.2674    
    589700   294.42301      349.63154      30070.215      0.99484732    -8209.1802    
    589800   299.34855      245.73728      30070.215      0.99484732    -8179.3805    
    589900   304.778        76.90653       30070.215      0.99484732    -8099.0007    
    590000   307.59465      342.46263      30070.215      0.99484732    -8086.1944    
    590100   298.51865      417.92007      30070.215      0.99484732    -8186.0821    
    590200   302.08799      98.630394      30070.215      0.99484732    -8224.3657    
    590300   296.97468      410.05034      30070.215      0.99484732    -8261.4981    
    590400   290.41952      221.44303      30070.215      0.99484732    -8281.4487    
    590500   302.28421      377.90928      30070.215      0.99484732    -8262.0137    
    590600   300.43557      131.35746      30070.215      0.99484732    -8209.3566    
    590700   299.99692      186.84425      30070.215      0.99484732    -8153.2618    
    590800   297.68163      523.66269      30070.215      0.99484732    -8168.6252    
    590900   302.24523     -311.3534       30070.215      0.99484732    -8241.1245    
    591000   300.5288      -223.81909      30070.215      0.99484732    -8269.6134    
    591100   308.21277      549.69929      30070.215      0.99484732    -8263.0107    
    591200   297.79167      317.08341      30070.215      0.99484732    -8296.1675    
    591300   302.19111     -335.92422      30070.215      0.99484732    -8290.1941    
    591400   303.79697      383.78532      30070.215      0.99484732    -8204.4116    
    591500   311.75894     -665.70012      30070.215      0.99484732    -8185.5051    
    591600   304.88825     -320.08489      30070.215      0.99484732    -8220.7855    
    591700   294.58613     -209.32298      30070.215      0.99484732    -8243.1       
    591800   308.19974     -121.79972      30070.215      0.99484732    -8181.4424    
    591900   306.184        328.29079      30070.215      0.99484732    -8154.579     
    592000   295.3956       214.42259      30070.215      0.99484732    -8176.1551    
    592100   293.00252     -130.28034      30070.215      0.99484732    -8201.3309    
    592200   299.51493      6.0902237      30070.215      0.99484732    -8212.1744    
    592300   299.97682     -396.32864      30070.215      0.99484732    -8253.4568    
    592400   297.86873     -434.15329      30070.215      0.99484732    -8297.3951    
    592500   297.1646       611.01407      30070.215      0.99484732    -8266.5845    
    592600   304.38532     -99.507438      30070.215      0.99484732    -8182.0185    
    592700   306.74112     -109.12073      30070.215      0.99484732    -8154.5136    
    592800   298.36018      392.75796      30070.215      0.99484732    -8206.7423    
    592900   294.32339     -129.39555      30070.215      0.99484732    -8238.7884    
    593000   299.27552     -292.02165      30070.215      0.99484732    -8213.5468    
    593100   299.87748      525.12622      30070.215      0.99484732    -8158.2472    
    593200   304.44547      497.81325      30070.215      0.99484732    -8162.8737    
    593300   305.24122      322.47477      30070.215      0.99484732    -8196.6149    
    593400   300.10504     -363.14298      30070.215      0.99484732    -8224.1538    
    593500   303.66869     -542.83861      30070.215      0.99484732    -8226.1976    
    593600   305.56482     -609.3592       30070.215      0.99484732    -8216.9968    
    593700   301.73513     -249.97273      30070.215      0.99484732    -8202.4152    
    593800   304.62237     -168.96402      30070.215      0.99484732    -8194.4482    
    593900   303.46808     -2.1814395      30070.215      0.99484732    -8196.4524    
    594000   304.11148     -365.68969      30070.215      0.99484732    -8227.0424    
    594100   292.33389      202.86147      30070.215      0.99484732    -8294.1921    
    594200   301.6303       177.09534      30070.215      0.99484732    -8314.6006    
    594300   294.64632      263.03684      30070.215      0.99484732    -8289.3986    
    594400   303.57846     -7.6498266      30070.215      0.99484732    -8229.837     
    594500   300.36602      189.51487      30070.215      0.99484732    -8200.2028    
    594600   300.08313      1.8761179      30070.215      0.99484732    -8191.9137    
    594700   307.52024     -483.55537      30070.215      0.99484732    -8199.1889    
    594800   292.63483     -30.610684      30070.215      0.99484732    -8239.0205    
    594900   296.65242     -104.00754      30070.215      0.99484732    -8272.9209    
    595000   301.3312       16.515909      30070.215      0.99484732    -8310.5841    
    595100   295.36074     -18.329842      30070.215      0.99484732    -8339.9588    
    595200   297.11345     -216.02835      30070.215      0.99484732    -8351.329     
    595300   298.43546     -248.10095      30070.215      0.99484732    -8296.4585    
    595400   303.9147       350.75521      30070.215      0.99484732    -8237.088     
    595500   299.50314     -429.91769      30070.215      0.99484732    -8225.1875    
    595600   296.16891      173.76395      30070.215      0.99484732    -8197.8366    
    595700   303.92771     -342.32288      30070.215      0.99484732    -8113.3514    
    595800   308.97489     -188.44689      30070.215      0.99484732    -8082.4633    
    595900   308.51778     -333.70608      30070.215      0.99484732    -8131.0343    
    596000   304.26159     -792.33145      30070.215      0.99484732    -8181.8535    
    596100   299.31175      22.315661      30070.215      0.99484732    -8207.611     
    596200   304.68241     -267.51861      30070.215      0.99484732    -8209.6371    
    596300   304.231       -314.65624      30070.215      0.99484732    -8234.6833    
    596400   298.57004      209.54324      30070.215      0.99484732    -8311.9618    
    596500   294.20203      811.25013      30070.215      0.99484732    -8342.515     
    596600   295.92599      116.899        30070.215      0.99484732    -8336.8822    
    596700   304.39899      247.50826      30070.215      0.99484732    -8263.0769    
    596800   303.16882      361.3223       30070.215      0.99484732    -8216.3032    
    596900   300.65526      440.81049      30070.215      0.99484732    -8244.8686    
    597000   308.22476      165.12204      30070.215      0.99484732    -8271.4276    
    597100   300.3047      -359.99723      30070.215      0.99484732    -8295.3628    
    597200   297.623       -368.03347      30070.215      0.99484732    -8313.6152    
    597300   296.06606     -546.27269      30070.215      0.99484732    -8290.2262    
    597400   304.0098      -1132.5708      30070.215      0.99484732    -8244.3811    
    597500   299.88644      71.252637      30070.215      0.99484732    -8224.4417    
    597600   306.17373      521.83802      30070.215      0.99484732    -8233.7663    
    597700   293.29819      640.81709      30070.215      0.99484732    -8307.7194    
    597800   297.09247     -360.36143      30070.215      0.99484732    -8344.3266    
    597900   305.0987       2.2554448      30070.215      0.99484732    -8337.1944    
    598000   296.57024     -43.237555      30070.215      0.99484732    -8339.8398    
    598100   296.49178     -634.12886      30070.215      0.99484732    -8383.1195    
    598200   297.45294     -245.64055      30070.215      0.99484732    -8401.6242    
    598300   295.86587      107.94287      30070.215      0.99484732    -8338.0119    
    598400   296.26873      21.861656      30070.215      0.99484732    -8291.1142    
    598500   302.11436     -473.06801      30070.215      0.99484732    -8272.9445    
    598600   299.92569      659.97268      30070.215      0.99484732    -8233.4147    
    598700   313.8602       217.17056      30070.215      0.99484732    -8192.7675    
    598800   297.24656     -374.36645      30070.215      0.99484732    -8297.1191    
    598900   291.19311      138.76426      30070.215      0.99484732    -8319.5421    
    599000   307.45144      388.28905      30070.215      0.99484732    -8283.3783    
    599100   303.10506      50.649363      30070.215      0.99484732    -8265.2755    
    599200   292.48089      437.279        30070.215      0.99484732    -8323.9854    
    599300   297.8261      -98.824574      30070.215      0.99484732    -8362.6079    
    599400   301.60162      289.24789      30070.215      0.99484732    -8323.0721    
    599500   296.59577      427.19521      30070.215      0.99484732    -8305.6747    
    599600   300.07655     -49.539855      30070.215      0.99484732    -8288.2808    
    599700   299.11877     -216.83663      30070.215      0.99484732    -8270.2493    
    599800   304.13929      3.6069499      30070.215      0.99484732    -8212.7902    
    599900   305.19455      1032.4193      30070.215      0.99484732    -8174.6095    
    600000   296.04774      398.21254      30070.215      0.99484732    -8239.6075    
    600100   297.36544      89.974018      30070.215      0.99484732    -8284.3385    
    600200   297.58551      191.75401      30070.215      0.99484732    -8296.4494    
    600300   301.30117      93.648345      30070.215      0.99484732    -8268.9379    
    600400   297.72378      256.73209      30070.215      0.99484732    -8216.4358    
    600500   312.57668      19.133302      30070.215      0.99484732    -8156.576     
    600600   292.29849      268.9427       30070.215      0.99484732    -8155.8849    
    600700   294.66479     -162.92562      30070.215      0.99484732    -8248.048     
    600800   301.29235     -441.30366      30070.215      0.99484732    -8277.459     
    600900   292.22468      599.67944      30070.215      0.99484732    -8312.5183    
    601000   296.95662     -122.27704      30070.215      0.99484732    -8355.8416    
    601100   294.1757      -282.25613      30070.215      0.99484732    -8358.4382    
    601200   293.90722      606.07095      30070.215      0.99484732    -8266.6656    
    601300   299.8908       503.4614       30070.215      0.99484732    -8227.9852    
    601400   301.71876      385.35904      30070.215      0.99484732    -8206.9649    
    601500   303.03963      459.34419      30070.215      0.99484732    -8215.7182    
    601600   290.69895     -97.331456      30070.215      0.99484732    -8294.5027    
    601700   297.42331     -460.30196      30070.215      0.99484732    -8284.2466    
    601800   306.99374     -5.7208677      30070.215      0.99484732    -8242.643     
    601900   297.10779      71.991951      30070.215      0.99484732    -8246.0205    
    602000   294.92368     -231.7354       30070.215      0.99484732    -8250.8031    
    602100   305.18693     -39.456225      30070.215      0.99484732    -8229.9808    
    602200   309.77872     -173.44352      30070.215      0.99484732    -8146.4903    
    602300   309.69171     -281.94553      30070.215      0.99484732    -8128.5132    
    602400   298.72246     -533.81922      30070.215      0.99484732    -8168.3216    
    602500   293.20735      228.4464       30070.215      0.99484732    -8217.5903    
    602600   286.91542     -112.17819      30070.215      0.99484732    -8290.3588    
    602700   296.27689     -591.05512      30070.215      0.99484732    -8344.4457    
    602800   294.74963      94.931784      30070.215      0.99484732    -8301.5397    
    602900   302.25122      87.494308      30070.215      0.99484732    -8264.9907    
    603000   295.63555     -41.921426      30070.215      0.99484732    -8241.2897    
    603100   297.21931     -159.72339      30070.215      0.99484732    -8231.1394    
    603200   301.62776     -790.83402      30070.215      0.99484732    -8258.308     
    603300   304.74504     -1161.0677      30070.215      0.99484732    -8319.2744    
    603400   301.91459     -663.55754      30070.215      0.99484732    -8310.7188    
    603500   299.68212      65.955769      30070.215      0.99484732    -8255.6102    
    603600   300.64854      359.29744      30070.215      0.99484732    -8214.33      
    603700   307.1699      -284.2232       30070.215      0.99484732    -8208.4658    
    603800   290.83197      130.40443      30070.215      0.99484732    -8302.2703    
    603900   291.82251      36.715982      30070.215      0.99484732    -8331.5728    
    604000   293.98014     -86.642167      30070.215      0.99484732    -8278.5214    
    604100   291.68996      134.99307      30070.215      0.99484732    -8229.5551    
    604200   307.62656      364.68257      30070.215      0.99484732    -8201.8434    
    604300   302.52704      195.81711      30070.215      0.99484732    -8242.7824    
    604400   293.42996      88.838259      30070.215      0.99484732    -8282.636     
    604500   295.3765      -341.07137      30070.215      0.99484732    -8264.2765    
    604600   302.10263      559.17559      30070.215      0.99484732    -8213.9201    
    604700   307.50897      88.232398      30070.215      0.99484732    -8190.6798    
    604800   301.63763      144.42896      30070.215      0.99484732    -8238.2359    
    604900   292.93618      120.9513       30070.215      0.99484732    -8302.0271    
    605000   298.72016      175.85758      30070.215      0.99484732    -8275.7532    
    605100   301.55478      372.68362      30070.215      0.99484732    -8250.5927    
    605200   301.5646       324.92555      30070.215      0.99484732    -8246.8756    
    605300   294.70695     -398.9073       30070.215      0.99484732    -8300.2179    
    605400   293.78258      0.58644239     30070.215      0.99484732    -8343.6285    
    605500   293.02763     -41.063283      30070.215      0.99484732    -8311.5651    
    605600   299.99522     -56.990147      30070.215      0.99484732    -8221.162     
    605700   302.54823      157.94434      30070.215      0.99484732    -8216.2353    
    605800   299.62289     -37.111455      30070.215      0.99484732    -8226.924     
    605900   297.92122     -503.28752      30070.215      0.99484732    -8280.2968    
    606000   292.2408      -402.43248      30070.215      0.99484732    -8314.457     
    606100   303.47784      93.365594      30070.215      0.99484732    -8229.3395    
    606200   296.45807      67.316988      30070.215      0.99484732    -8198.3839    
    606300   299.03351     -258.4521       30070.215      0.99484732    -8194.537     
    606400   307.60745     -83.724354      30070.215      0.99484732    -8158.5101    
    606500   304.05276     -234.15696      30070.215      0.99484732    -8120.443     
    606600   307.88607      72.766969      30070.215      0.99484732    -8090.0567    
    606700   310.58367      499.16163      30070.215      0.99484732    -8096.7107    
    606800   296.03927      131.79187      30070.215      0.99484732    -8183.682     
    606900   308.04426      419.06718      30070.215      0.99484732    -8212.9066    
    607000   294.30335      140.82607      30070.215      0.99484732    -8261.6404    
    607100   303.36393      320.38535      30070.215      0.99484732    -8270.1731    
    607200   297.07429     -452.46734      30070.215      0.99484732    -8325.2608    
    607300   286.56554     -299.68717      30070.215      0.99484732    -8363.5447    
    607400   305.76262      37.208349      30070.215      0.99484732    -8303.7781    
    607500   303.70054     -406.60784      30070.215      0.99484732    -8263.8754    
    607600   299.73429      129.99685      30070.215      0.99484732    -8251.8219    
    607700   298.70984      177.67254      30070.215      0.99484732    -8240.1882    
    607800   300.20183      302.61942      30070.215      0.99484732    -8227.1131    
    607900   299.21835     -196.31083      30070.215      0.99484732    -8227.3527    
    608000   302.10164     -242.81584      30070.215      0.99484732    -8225.8104    
    608100   295.75166      256.37841      30070.215      0.99484732    -8227.2898    
    608200   300.61156      201.26747      30070.215      0.99484732    -8237.3188    
    608300   291.27207     -365.85072      30070.215      0.99484732    -8280.9537    
    608400   296.32997     -85.503289      30070.215      0.99484732    -8258.7025    
    608500   308.18819     -834.1087       30070.215      0.99484732    -8183.534     
    608600   301.23723      51.937167      30070.215      0.99484732    -8173.1826    
    608700   296.46715      414.64376      30070.215      0.99484732    -8201.6301    
    608800   302.49675      86.930967      30070.215      0.99484732    -8238.8148    
    608900   295.03329      511.11606      30070.215      0.99484732    -8246.9126    
    609000   301.84981      121.8116       30070.215      0.99484732    -8241.8724    
    609100   307.62604     -173.90281      30070.215      0.99484732    -8256.1443    
    609200   300.2927      -498.4563       30070.215      0.99484732    -8255.2074    
    609300   307.16482      465.39147      30070.215      0.99484732    -8178.2178    
    609400   306.32886      161.96804      30070.215      0.99484732    -8135.4851    
    609500   300.14581      354.51668      30070.215      0.99484732    -8179.1519    
    609600   300.39132      365.26851      30070.215      0.99484732    -8218.4545    
    609700   302.12541      169.97641      30070.215      0.99484732    -8231.1246    
    609800   291.92384      395.531        30070.215      0.99484732    -8255.3505    
    609900   302.7635       31.337371      30070.215      0.99484732    -8255.3673    
    610000   300.01219     -117.93733      30070.215      0.99484732    -8219.9821    
    610100   300.51641     -759.68553      30070.215      0.99484732    -8181.1758    
    610200   304.8845      -6.9048516      30070.215      0.99484732    -8130.3871    
    610300   306.84578     -779.19664      30070.215      0.99484732    -8121.0558    
    610400   296.72847      280.04582      30070.215      0.99484732    -8203.5117    
    610500   296.88765     -223.28618      30070.215      0.99484732    -8230.8122    
    610600   302.17811      448.01248      30070.215      0.99484732    -8210.6923    
    610700   300.76143      490.60043      30070.215      0.99484732    -8213.3693    
    610800   294.94813     -396.11751      30070.215      0.99484732    -8296.7248    
    610900   299.44973      46.939561      30070.215      0.99484732    -8323.1952    
    611000   303.85647      183.29991      30070.215      0.99484732    -8315.7696    
    611100   301.2908      -279.34823      30070.215      0.99484732    -8311.1487    
    611200   299.26332      399.93635      30070.215      0.99484732    -8262.7046    
    611300   305.32933     -67.26071       30070.215      0.99484732    -8219.1625    
    611400   303.21517     -322.06085      30070.215      0.99484732    -8244.3669    
    611500   295.87022     -494.84823      30070.215      0.99484732    -8325.1277    
    611600   298.14132      885.97925      30070.215      0.99484732    -8338.6378    
    611700   302.52415      791.42383      30070.215      0.99484732    -8302.2676    
    611800   309.55254      934.29736      30070.215      0.99484732    -8273.2792    
    611900   297.83934     -58.207486      30070.215      0.99484732    -8380.6606    
    612000   297.43016     -57.704192      30070.215      0.99484732    -8398.8617    
    612100   296.45253      620.66358      30070.215      0.99484732    -8369.428     
    612200   302.30413      197.85336      30070.215      0.99484732    -8308.1833    
    612300   306.63855      308.55723      30070.215      0.99484732    -8277.6885    
    612400   301.91073      137.65138      30070.215      0.99484732    -8290.7577    
    612500   298.12785     -125.07744      30070.215      0.99484732    -8390.0902    
    612600   283.48782      388.25698      30070.215      0.99484732    -8410.3478    
    612700   298.48464      111.89501      30070.215      0.99484732    -8342.9878    
    612800   292.43619     -125.50437      30070.215      0.99484732    -8292.1617    
    612900   295.58012     -120.30409      30070.215      0.99484732    -8248.8504    
    613000   310.8142      -291.61845      30070.215      0.99484732    -8232.6438    
    613100   297.3057      -56.773774      30070.215      0.99484732    -8289.0281    
    613200   295.17452      143.92014      30070.215      0.99484732    -8350.9079    
    613300   295.06537      616.35762      30070.215      0.99484732    -8364.1391    
    613400   292.07302     -879.79519      30070.215      0.99484732    -8349.9594    
    613500   291.91423     -416.01858      30070.215      0.99484732    -8296.7713    
    613600   294.94602     -23.950591      30070.215      0.99484732    -8244.302     
    613700   305.34882      410.37944      30070.215      0.99484732    -8217.8946    
    613800   303.46462      281.68679      30070.215      0.99484732    -8229.7231    
    613900   299.90069     -363.59539      30070.215      0.99484732    -8311.7768    
    614000   296.00567     -367.82376      30070.215      0.99484732    -8324.1612    
    614100   295.74195     -341.44288      30070.215      0.99484732    -8287.2723    
    614200   302.88495     -450.12811      30070.215      0.99484732    -8259.4212    
    614300   292.74683      269.42697      30070.215      0.99484732    -8250.0948    
    614400   300.10637     -197.89678      30070.215      0.99484732    -8195.5779    
    614500   299.13839     -52.93302       30070.215      0.99484732    -8179.5705    
    614600   296.98862      675.38982      30070.215      0.99484732    -8166.4536    
    614700   305.28554      620.93566      30070.215      0.99484732    -8156.9312    
    614800   294.25067     -98.63488       30070.215      0.99484732    -8225.7851    
    614900   294.32677     -24.585367      30070.215      0.99484732    -8256.7085    
    615000   298.81224     -71.678165      30070.215      0.99484732    -8237.1415    
    615100   301.58288      629.40604      30070.215      0.99484732    -8212.2739    
    615200   289.31631      613.20807      30070.215      0.99484732    -8227.7902    
    615300   297.33745      399.37843      30070.215      0.99484732    -8204.8033    
    615400   312.27722      460.95243      30070.215      0.99484732    -8164.9736    
    615500   302.41553      486.36922      30070.215      0.99484732    -8212.1001    
    615600   295.7466       615.44989      30070.215      0.99484732    -8269.7179    
    615700   298.83051      264.41605      30070.215      0.99484732    -8285.587     
    615800   296.20711      479.97838      30070.215      0.99484732    -8264.1845    
    615900   303.5784       434.31326      30070.215      0.99484732    -8193.1266    
    616000   303.24327      150.34763      30070.215      0.99484732    -8191.406     
    616100   295.09432      7.2743581      30070.215      0.99484732    -8267.2518    
    616200   296.35309      404.40258      30070.215      0.99484732    -8320.4693    
    616300   301.16349      177.94103      30070.215      0.99484732    -8315.2804    
    616400   294.30042     -180.16575      30070.215      0.99484732    -8267.0894    
    616500   301.66629     -53.57522       30070.215      0.99484732    -8231.2156    
    616600   301.13245     -27.216537      30070.215      0.99484732    -8204.99      
    616700   307.53072     -669.95526      30070.215      0.99484732    -8174.8212    
    616800   305.25439      242.05117      30070.215      0.99484732    -8168.0679    
    616900   298.56001      504.17165      30070.215      0.99484732    -8232.897     
    617000   289.03951      188.82568      30070.215      0.99484732    -8296.788     
    617100   301.10053     -201.92353      30070.215      0.99484732    -8252.1012    
    617200   301.71667     -555.32272      30070.215      0.99484732    -8208.6491    
    617300   312.5903      -190.543        30070.215      0.99484732    -8184.2764    
    617400   298.00399     -460.64451      30070.215      0.99484732    -8205.6946    
    617500   300.20787     -531.60991      30070.215      0.99484732    -8271.0316    
    617600   294.22521     -31.996312      30070.215      0.99484732    -8291.7128    
    617700   298.36941      162.10774      30070.215      0.99484732    -8250.7201    
    617800   314.57367     -18.40139       30070.215      0.99484732    -8179.4658    
    617900   303.49203     -181.4465       30070.215      0.99484732    -8181.7411    
    618000   302.027       -212.1998       30070.215      0.99484732    -8194.1876    
    618100   304.23093     -173.9062       30070.215      0.99484732    -8199.3653    
    618200   299.24413      150.39546      30070.215      0.99484732    -8197.8294    
    618300   296.56634      230.80794      30070.215      0.99484732    -8282.3813    
    618400   293.00248      160.64514      30070.215      0.99484732    -8322.7943    
    618500   304.23491     -705.93707      30070.215      0.99484732    -8294.2836    
    618600   301.53667     -524.23667      30070.215      0.99484732    -8272.9021    
    618700   303.74536      178.83157      30070.215      0.99484732    -8241.7845    
    618800   303.78047      679.10197      30070.215      0.99484732    -8187.089     
    618900   303.07291      419.01545      30070.215      0.99484732    -8212.672     
    619000   291.6571       106.48163      30070.215      0.99484732    -8277.1369    
    619100   304.64323      218.09964      30070.215      0.99484732    -8268.1984    
    619200   293.15887      458.67816      30070.215      0.99484732    -8274.3118    
    619300   295.87321     -72.900815      30070.215      0.99484732    -8290.4649    
    619400   295.66676     -499.62312      30070.215      0.99484732    -8280.6673    
    619500   300.2501      -13.166644      30070.215      0.99484732    -8217.1143    
    619600   306.23513      262.68477      30070.215      0.99484732    -8175.1648    
    619700   298.98632     -428.0336       30070.215      0.99484732    -8185.8295    
    619800   297.88475     -195.63475      30070.215      0.99484732    -8232.9971    
    619900   288.45926     -296.63689      30070.215      0.99484732    -8303.0127    
    620000   304.64066     -380.36095      30070.215      0.99484732    -8302.5192    
    620100   302.15539     -192.39423      30070.215      0.99484732    -8214.8827    
    620200   312.08174      223.95147      30070.215      0.99484732    -8173.4896    
    620300   297.8707      -394.33574      30070.215      0.99484732    -8217.2744    
    620400   301.44682     -6.9459138      30070.215      0.99484732    -8207.7398    
    620500   305.38379      196.29078      30070.215      0.99484732    -8174.0373    
    620600   301.77182     -255.9088       30070.215      0.99484732    -8209.4894    
    620700   295.69063      40.704541      30070.215      0.99484732    -8284.2187    
    620800   294.20812     -500.16267      30070.215      0.99484732    -8319.2693    
    620900   300.93203     -595.09941      30070.215      0.99484732    -8274.3516    
    621000   300.77112     -39.362438      30070.215      0.99484732    -8220.1367    
    621100   301.25012     -387.12749      30070.215      0.99484732    -8228.2198    
    621200   299.70931     -32.91365       30070.215      0.99484732    -8277.8979    
    621300   296.78153     -613.27073      30070.215      0.99484732    -8309.1875    
    621400   298.48972     -186.97263      30070.215      0.99484732    -8301.866     
    621500   294.96509     -109.61376      30070.215      0.99484732    -8264.6301    
    621600   300.43413     -320.44744      30070.215      0.99484732    -8245.9127    
    621700   301.30748     -107.61451      30070.215      0.99484732    -8252.4351    
    621800   297.96251     -5.4442926      30070.215      0.99484732    -8249.7847    
    621900   309.49471      110.09953      30070.215      0.99484732    -8223.7098    
    622000   305.5535       259.6346       30070.215      0.99484732    -8255.873     
    622100   294.34891     -204.96438      30070.215      0.99484732    -8331.2392    
    622200   296.2781      -71.440744      30070.215      0.99484732    -8323.486     
    622300   307.31404      104.69717      30070.215      0.99484732    -8262.1134    
    622400   308.88413      158.91503      30070.215      0.99484732    -8259.8362    
    622500   297.75418      353.0291       30070.215      0.99484732    -8303.5847    
    622600   303.91404     -642.59267      30070.215      0.99484732    -8313.9837    
    622700   287.89683      9.2873378      30070.215      0.99484732    -8300.6901    
    622800   301.23723      74.470631      30070.215      0.99484732    -8252.507     
    622900   299.00076     -247.69189      30070.215      0.99484732    -8229.4635    
    623000   298.6457      -127.16642      30070.215      0.99484732    -8235.4135    
    623100   301.79693      47.417743      30070.215      0.99484732    -8245.6214    
    623200   292.36928     -441.24965      30070.215      0.99484732    -8251.982     
    623300   305.12309     -12.838096      30070.215      0.99484732    -8240.5453    
    623400   299.43996     -251.31316      30070.215      0.99484732    -8306.0075    
    623500   293.82324      281.88698      30070.215      0.99484732    -8343.5088    
    623600   299.22524      292.58624      30070.215      0.99484732    -8318.7878    
    623700   299.68102      552.23074      30070.215      0.99484732    -8266.5892    
    623800   296.02281      408.92731      30070.215      0.99484732    -8198.565     
    623900   299.2321      -132.82753      30070.215      0.99484732    -8192.5482    
    624000   311.43984      212.72803      30070.215      0.99484732    -8206.9292    
    624100   300.09281      384.73679      30070.215      0.99484732    -8265.7702    
    624200   296.25961      99.496084      30070.215      0.99484732    -8313.1955    
    624300   299.30539     -610.3544       30070.215      0.99484732    -8284.6282    
    624400   303.85092     -513.95012      30070.215      0.99484732    -8254.0349    
    624500   298.10357     -542.25631      30070.215      0.99484732    -8220.7704    
    624600   300.36861      97.707689      30070.215      0.99484732    -8168.6821    
    624700   302.13029      465.96044      30070.215      0.99484732    -8141.6408    
    624800   302.23422      274.5469       30070.215      0.99484732    -8142.5051    
    624900   291.03988     -40.645668      30070.215      0.99484732    -8185.0584    
    625000   294.86572      503.16352      30070.215      0.99484732    -8228.8226    
    625100   288.71549      227.66618      30070.215      0.99484732    -8336.2945    
    625200   295.31649     -246.96339      30070.215      0.99484732    -8320.2284    
    625300   303.27369      78.185352      30070.215      0.99484732    -8257.9082    
    625400   299.77396      180.68007      30070.215      0.99484732    -8222.9373    
    625500   301.54579     -58.674407      30070.215      0.99484732    -8192.6727    
    625600   308.80095     -3.2436264      30070.215      0.99484732    -8140.9071    
    625700   310.5761       88.292166      30070.215      0.99484732    -8103.8027    
    625800   302.09688     -358.17754      30070.215      0.99484732    -8147.5998    
    625900   305.33758     -345.79774      30070.215      0.99484732    -8218.0878    
    626000   295.23393     -548.8272       30070.215      0.99484732    -8257.6979    
    626100   296.47114      304.29597      30070.215      0.99484732    -8254.1874    
    626200   300.72442     -675.35273      30070.215      0.99484732    -8209.5756    
    626300   307.28059     -11.980291      30070.215      0.99484732    -8145.193     
    626400   305.83063      345.26311      30070.215      0.99484732    -8179.6322    
    626500   300.34178     -199.20727      30070.215      0.99484732    -8253.9505    
    626600   294.25801      61.837322      30070.215      0.99484732    -8269.6727    
    626700   301.95808      245.46711      30070.215      0.99484732    -8296.1373    
    626800   289.20056      96.084411      30070.215      0.99484732    -8349.7327    
    626900   285.97481      391.2848       30070.215      0.99484732    -8310.0848    
    627000   299.95549      115.74134      30070.215      0.99484732    -8247.9655    
    627100   303.65003     -331.15783      30070.215      0.99484732    -8241.4193    
    627200   298.97713     -726.86462      30070.215      0.99484732    -8244.5999    
    627300   298.29212      83.261702      30070.215      0.99484732    -8224.6034    
    627400   298.11542      670.20088      30070.215      0.99484732    -8184.7023    
    627500   301.33394      324.25918      30070.215      0.99484732    -8170.54      
    627600   302.36055     -319.47257      30070.215      0.99484732    -8181.918     
    627700   297.20886     -593.26563      30070.215      0.99484732    -8250.003     
    627800   294.54025     -398.39541      30070.215      0.99484732    -8270.0008    
    627900   302.87037      187.74138      30070.215      0.99484732    -8241.5297    
    628000   311.03799      288.63958      30070.215      0.99484732    -8231.2996    
    628100   296.87622     -335.3825       30070.215      0.99484732    -8310.8489    
    628200   290.07552     -55.464988      30070.215      0.99484732    -8334.156     
    628300   304.62951     -193.76455      30070.215      0.99484732    -8287.7775    
    628400   298.50888     -107.16454      30070.215      0.99484732    -8235.7067    
    628500   299.78744      584.23714      30070.215      0.99484732    -8216.5097    
    628600   300.48699      445.83663      30070.215      0.99484732    -8212.4198    
    628700   291.68608      343.10168      30070.215      0.99484732    -8236.1597    
    628800   305.78752      175.76479      30070.215      0.99484732    -8240.4517    
    628900   308.74292     -93.115345      30070.215      0.99484732    -8206.6625    
    629000   307.43802      509.04979      30070.215      0.99484732    -8157.1987    
    629100   308.78409      347.52981      30070.215      0.99484732    -8169.2743    
    629200   296.31681      411.81398      30070.215      0.99484732    -8226.0745    
    629300   296.64941      323.20996      30070.215      0.99484732    -8271.7191    
    629400   301.83601      144.74861      30070.215      0.99484732    -8289.7951    
    629500   303.15482     -467.14634      30070.215      0.99484732    -8260.7601    
    629600   313.38363      74.11691       30070.215      0.99484732    -8177.6806    
    629700   306.666        357.99415      30070.215      0.99484732    -8211.1886    
    629800   298.18803     -367.57757      30070.215      0.99484732    -8264.5497    
    629900   296.67131     -489.81303      30070.215      0.99484732    -8267.9855    
    630000   299.86369      135.6929       30070.215      0.99484732    -8221.7103    
    630100   312.783        402.1829       30070.215      0.99484732    -8145.9677    
    630200   306.96222      275.67898      30070.215      0.99484732    -8173.8095    
    630300   293.49593     -117.84191      30070.215      0.99484732    -8199.8218    
    630400   308.48086     -207.52088      30070.215      0.99484732    -8183.09      
    630500   301.13313     -193.68052      30070.215      0.99484732    -8201.7826    
    630600   292.08515      107.6484       30070.215      0.99484732    -8269.9901    
    630700   303.66879      198.07307      30070.215      0.99484732    -8306.5609    
    630800   295.18056     -152.35909      30070.215      0.99484732    -8326.506     
    630900   297.92237     -968.65029      30070.215      0.99484732    -8316.0581    
    631000   298.10267      88.527074      30070.215      0.99484732    -8275.6765    
    631100   310.83448      423.25127      30070.215      0.99484732    -8255.5146    
    631200   305.44429     -243.24601      30070.215      0.99484732    -8284.2526    
    631300   294.20199     -296.65109      30070.215      0.99484732    -8265.4212    
    631400   296.02663     -477.00231      30070.215      0.99484732    -8218.9222    
    631500   307.07437     -557.47556      30070.215      0.99484732    -8192.6772    
    631600   299.5966      -284.18214      30070.215      0.99484732    -8195.5214    
    631700   295.83212     -437.75707      30070.215      0.99484732    -8282.8907    
    631800   294.11266     -416.93784      30070.215      0.99484732    -8319.3645    
    631900   293.00714     -49.887102      30070.215      0.99484732    -8285.5016    
    632000   307.53214     -43.188613      30070.215      0.99484732    -8223.3518    
    632100   302.98381      27.025981      30070.215      0.99484732    -8217.7275    
    632200   300.82637     -413.45517      30070.215      0.99484732    -8252.3954    
    632300   298.84679     -154.87908      30070.215      0.99484732    -8312.9086    
    632400   292.20171     -317.47109      30070.215      0.99484732    -8331.3052    
    632500   295.8272      -434.7934       30070.215      0.99484732    -8309.9228    
    632600   296.70157     -32.83527       30070.215      0.99484732    -8300.2088    
    632700   298.45102     -69.347617      30070.215      0.99484732    -8281.0294    
    632800   303.1545      -604.27009      30070.215      0.99484732    -8250.6345    
    632900   301.12008      335.14073      30070.215      0.99484732    -8242.9849    
    633000   293.32834      115.13212      30070.215      0.99484732    -8272.6999    
    633100   289.09622     -494.85406      30070.215      0.99484732    -8317.4707    
    633200   298.48787      285.96772      30070.215      0.99484732    -8293.8759    
    633300   297.2939       389.53835      30070.215      0.99484732    -8231.0309    
    633400   308.19125     -149.83342      30070.215      0.99484732    -8178.3742    
    633500   308.64804      60.994194      30070.215      0.99484732    -8156.3455    
    633600   306.28899     -289.2666       30070.215      0.99484732    -8213.4329    
    633700   299.04208     -60.526806      30070.215      0.99484732    -8302.8762    
    633800   293.38269     -51.114796      30070.215      0.99484732    -8341.1192    
    633900   297.24055      138.04161      30070.215      0.99484732    -8325.5053    
    634000   305.30123     -116.26149      30070.215      0.99484732    -8276.905     
    634100   299.0479       41.441172      30070.215      0.99484732    -8257.5348    
    634200   300.69383     -89.342415      30070.215      0.99484732    -8269.0855    
    634300   306.67671      58.86421       30070.215      0.99484732    -8305.2414    
    634400   292.62767      104.31136      30070.215      0.99484732    -8376.1397    
    634500   293.00824      15.318394      30070.215      0.99484732    -8365.1911    
    634600   303.56362      237.81345      30070.215      0.99484732    -8311.6751    
    634700   299.47579      333.31237      30070.215      0.99484732    -8280.3684    
    634800   304.04711     -47.26122       30070.215      0.99484732    -8266.8387    
    634900   309.27846      27.086542      30070.215      0.99484732    -8284.2676    
    635000   306.10294     -179.81109      30070.215      0.99484732    -8297.3938    
    635100   299.74929     -82.963237      30070.215      0.99484732    -8303.4713    
    635200   296.17901     -121.08086      30070.215      0.99484732    -8303.1598    
    635300   302.09335      674.14279      30070.215      0.99484732    -8256.5742    
    635400   303.41252     -194.96339      30070.215      0.99484732    -8204.4573    
    635500   306.73982     -261.48967      30070.215      0.99484732    -8172.1846    
    635600   302.39035     -344.15687      30070.215      0.99484732    -8232.2304    
    635700   288.90976     -301.80219      30070.215      0.99484732    -8293.626     
    635800   301.33152      89.828913      30070.215      0.99484732    -8261.045     
    635900   303.94321     -426.6163       30070.215      0.99484732    -8220.5058    
    636000   294.35175      592.48338      30070.215      0.99484732    -8205.4772    
    636100   307.69096      141.26484      30070.215      0.99484732    -8147.3954    
    636200   306.51553      656.17793      30070.215      0.99484732    -8113.0707    
    636300   293.73427      20.062502      30070.215      0.99484732    -8188.647     
    636400   294.95105     -270.92209      30070.215      0.99484732    -8208.3518    
    636500   308.66756     -251.3464       30070.215      0.99484732    -8217.198     
    636600   302.83428      38.70871       30070.215      0.99484732    -8293.3867    
    636700   294.91084     -0.51089986     30070.215      0.99484732    -8325.9168    
    636800   296.17308      36.248074      30070.215      0.99484732    -8294.7866    
    636900   311.2924       367.33361      30070.215      0.99484732    -8279.7992    
    637000   293.29952      104.8428       30070.215      0.99484732    -8343.6188    
    637100   288.53777     -621.0657       30070.215      0.99484732    -8396.7285    
    637200   295.06321     -379.49216      30070.215      0.99484732    -8378.3994    
    637300   299.68541     -276.33048      30070.215      0.99484732    -8348.2971    
    637400   303.75746     -212.13638      30070.215      0.99484732    -8337.3319    
    637500   297.18377     -819.05715      30070.215      0.99484732    -8301.2724    
    637600   303.8619      -169.2875       30070.215      0.99484732    -8220.6673    
    637700   304.53588     -474.68761      30070.215      0.99484732    -8230.66      
    637800   292.6117      -386.28104      30070.215      0.99484732    -8266.8691    
    637900   289.72911     -512.8045       30070.215      0.99484732    -8279.2729    
    638000   300.86889      278.3416       30070.215      0.99484732    -8212.2051    
    638100   305.36104      11.021601      30070.215      0.99484732    -8169.8215    
    638200   299.5454      -1049.4043      30070.215      0.99484732    -8213.6879    
    638300   300.34045     -337.93969      30070.215      0.99484732    -8240.3713    
    638400   306.00003      139.87949      30070.215      0.99484732    -8280.5408    
    638500   291.09872     -725.44142      30070.215      0.99484732    -8376.3927    
    638600   291.8223       216.01097      30070.215      0.99484732    -8350.8987    
    638700   296.61284      342.83527      30070.215      0.99484732    -8281.8911    
    638800   297.54497      393.63741      30070.215      0.99484732    -8237.7441    
    638900   304.85994      60.168845      30070.215      0.99484732    -8204.9648    
    639000   298.29213     -83.516661      30070.215      0.99484732    -8194.4653    
    639100   309.23801      416.30553      30070.215      0.99484732    -8160.0589    
    639200   300.11701     -679.67902      30070.215      0.99484732    -8210.9107    
    639300   300.00741     -150.03044      30070.215      0.99484732    -8278.5997    
    639400   295.69369     -315.05658      30070.215      0.99484732    -8294.7756    
    639500   300.95227      214.2465       30070.215      0.99484732    -8249.3198    
    639600   294.47523      500.01697      30070.215      0.99484732    -8217.7738    
    639700   296.85348     -266.07588      30070.215      0.99484732    -8185.7414    
    639800   314.6833       154.504        30070.215      0.99484732    -8176.6644    
    639900   297.78572      345.00136      30070.215      0.99484732    -8215.1001    
    640000   295.64076     -91.656705      30070.215      0.99484732    -8262.8232    
    640100   293.51933     -812.3146       30070.215      0.99484732    -8276.9229    
    640200   301.80502      400.02437      30070.215      0.99484732    -8201.224     
    640300   301.15301      457.34065      30070.215      0.99484732    -8176.7716    
    640400   301.79561     -63.799875      30070.215      0.99484732    -8198.5861    
    640500   299.14596     -134.36647      30070.215      0.99484732    -8250.3221    
    640600   292.18089     -0.17160583     30070.215      0.99484732    -8266.1532    
    640700   301.59118      308.55911      30070.215      0.99484732    -8233.2644    
    640800   297.20968     -110.4743       30070.215      0.99484732    -8222.1142    
    640900   304.88521     -90.888788      30070.215      0.99484732    -8220.4739    
    641000   293.77228     -417.09058      30070.215      0.99484732    -8230.7613    
    641100   309.59243     -435.72219      30070.215      0.99484732    -8198.5403    
    641200   304.29807     -106.9079       30070.215      0.99484732    -8142.5387    
    641300   302.53821      669.32507      30070.215      0.99484732    -8174.5912    
    641400   300.42077     -333.15586      30070.215      0.99484732    -8256.0632    
    641500   293.12229     -94.262966      30070.215      0.99484732    -8256.7776    
    641600   304.271       -237.85547      30070.215      0.99484732    -8224.9557    
    641700   301.47022      361.12583      30070.215      0.99484732    -8190.9068    
    641800   307.36541      287.82726      30070.215      0.99484732    -8212.299     
    641900   296.97536     -41.529725      30070.215      0.99484732    -8296.7795    
    642000   293.20218      356.8466       30070.215      0.99484732    -8314.7456    
    642100   298.62313     -193.30655      30070.215      0.99484732    -8282.3238    
    642200   303.85596      492.75219      30070.215      0.99484732    -8226.4494    
    642300   296.44273     -331.83784      30070.215      0.99484732    -8212.9573    
    642400   302.85113     -358.2678       30070.215      0.99484732    -8285.276     
    642500   294.42583      171.54952      30070.215      0.99484732    -8319.2029    
    642600   306.91303     -432.87007      30070.215      0.99484732    -8309.8526    
    642700   304.47484      225.98572      30070.215      0.99484732    -8286.2816    
    642800   298.66305      304.50757      30070.215      0.99484732    -8251.9943    
    642900   303.0716       421.00453      30070.215      0.99484732    -8230.0254    
    643000   302.11099      30.11743       30070.215      0.99484732    -8263.7184    
    643100   295.68931      250.83322      30070.215      0.99484732    -8329.6128    
    643200   286.10926      538.88885      30070.215      0.99484732    -8358.0319    
    643300   301.72968     -477.53614      30070.215      0.99484732    -8320.9317    
    643400   298.96628     -269.31567      30070.215      0.99484732    -8233.0362    
    643500   303.31883     -48.331674      30070.215      0.99484732    -8220.082     
    643600   299.7245       128.89076      30070.215      0.99484732    -8238.7814    
    643700   293.39242      65.704603      30070.215      0.99484732    -8291.3838    
    643800   293.20146     -451.01559      30070.215      0.99484732    -8296.3078    
    643900   301.71459      724.74257      30070.215      0.99484732    -8212.5506    
    644000   298.1161      -70.690976      30070.215      0.99484732    -8184.0911    
    644100   294.43311      201.56851      30070.215      0.99484732    -8188.9583    
    644200   301.12612      66.7234        30070.215      0.99484732    -8201.1184    
    644300   302.81644     -120.8243       30070.215      0.99484732    -8254.9163    
    644400   293.2076      -366.12369      30070.215      0.99484732    -8324.321     
    644500   292.27207     -436.85734      30070.215      0.99484732    -8311.5323    
    644600   305.00579     -531.03547      30070.215      0.99484732    -8277.6783    
    644700   297.87369     -331.26513      30070.215      0.99484732    -8289.3492    
    644800   289.09046     -612.82263      30070.215      0.99484732    -8353.0683    
    644900   291.72391     -452.68182      30070.215      0.99484732    -8330.2971    
    645000   296.12216      13.999167      30070.215      0.99484732    -8252.4586    
    645100   304.90012      30.382247      30070.215      0.99484732    -8250.9878    
    645200   300.18586     -257.32369      30070.215      0.99484732    -8290.6322    
    645300   296.39041     -28.39097       30070.215      0.99484732    -8306.6107    
    645400   305.89603      508.83279      30070.215      0.99484732    -8264.5606    
    645500   301.31534      449.4235       30070.215      0.99484732    -8211.5241    
    645600   309.33883      655.78993      30070.215      0.99484732    -8185.8712    
    645700   304.27805     -29.797373      30070.215      0.99484732    -8231.747     
    645800   298.02344      343.39751      30070.215      0.99484732    -8303.246     
    645900   295.8703      -338.10051      30070.215      0.99484732    -8315.3704    
    646000   302.01807     -491.18785      30070.215      0.99484732    -8285.6898    
    646100   297.0933      -301.77745      30070.215      0.99484732    -8273.2798    
    646200   305.53718      79.344322      30070.215      0.99484732    -8275.978     
    646300   299.31715     -142.41168      30070.215      0.99484732    -8280.1293    
    646400   302.66611     -97.372042      30070.215      0.99484732    -8264.8432    
    646500   298.9915       59.426979      30070.215      0.99484732    -8279.3103    
    646600   297.85975      191.3727       30070.215      0.99484732    -8330.5047    
    646700   300.64112      91.909412      30070.215      0.99484732    -8342.2538    
    646800   298.99765      35.460478      30070.215      0.99484732    -8313.2011    
    646900   307.68848      178.60429      30070.215      0.99484732    -8233.1644    
    647000   306.39141     -272.1859       30070.215      0.99484732    -8213.8102    
    647100   296.21935     -383.89608      30070.215      0.99484732    -8234.0338    
    647200   297.09562     -474.45886      30070.215      0.99484732    -8256.6832    
    647300   294.3395      -76.346781      30070.215      0.99484732    -8298.2611    
    647400   298.35514     -112.89989      30070.215      0.99484732    -8301.095     
    647500   291.64469     -368.49629      30070.215      0.99484732    -8287.7651    
    647600   302.18639      80.373968      30070.215      0.99484732    -8222.6797    
    647700   303.13235      502.48195      30070.215      0.99484732    -8192.8498    
    647800   303.65551      94.998696      30070.215      0.99484732    -8212.9954    
    647900   294.14557      233.77518      30070.215      0.99484732    -8317.1586    
    648000   301.46909     -464.58069      30070.215      0.99484732    -8315.9512    
    648100   292.97153     -318.84837      30070.215      0.99484732    -8269.273     
    648200   299.75046     -213.97847      30070.215      0.99484732    -8212.8359    
    648300   303.26544     -82.300451      30070.215      0.99484732    -8218.175     
    648400   301.18903      38.63191       30070.215      0.99484732    -8277.2848    
    648500   291.28778     -392.09412      30070.215      0.99484732    -8301.9687    
    648600   299.57848      271.55696      30070.215      0.99484732    -8265.1471    
    648700   303.49029     -20.266713      30070.215      0.99484732    -8248.2292    
    648800   301.70665     -223.50132      30070.215      0.99484732    -8255.4007    
    648900   294.71299      32.046635      30070.215      0.99484732    -8290.1392    
    649000   298.45773      98.498687      30070.215      0.99484732    -8298.9377    
    649100   299.33542     -442.42938      30070.215      0.99484732    -8254.4005    
    649200   305.18186     -272.87279      30070.215      0.99484732    -8190.8939    
    649300   299.64781     -318.83165      30070.215      0.99484732    -8168.5328    
    649400   304.53955     -261.95788      30070.215      0.99484732    -8197.7475    
    649500   297.91317     -664.15011      30070.215      0.99484732    -8286.0253    
    649600   297.56251     -227.6073       30070.215      0.99484732    -8285.7117    
    649700   299.4213      -62.513231      30070.215      0.99484732    -8267.1923    
    649800   293.86293      160.95876      30070.215      0.99484732    -8274.1494    
    649900   302.56473     -41.311581      30070.215      0.99484732    -8288.2906    
    650000   300.29402      402.49185      30070.215      0.99484732    -8320.4365    
    650100   297.64286     -21.338583      30070.215      0.99484732    -8346.5399    
    650200   301.54243     -91.039248      30070.215      0.99484732    -8310.6802    
    650300   297.28005      134.05862      30070.215      0.99484732    -8229.0483    
    650400   301.40477      147.51457      30070.215      0.99484732    -8205.7048    
    650500   301.97533      694.76496      30070.215      0.99484732    -8221.5777    
    650600   297.50804     -267.85171      30070.215      0.99484732    -8276.6425    
    650700   297.09012     -167.21441      30070.215      0.99484732    -8339.3095    
    650800   290.85271     -902.99893      30070.215      0.99484732    -8336.3398    
    650900   292.54477      201.88709      30070.215      0.99484732    -8293.8571    
    651000   304.63612     -94.995187      30070.215      0.99484732    -8251.8085    
    651100   308.25047     -102.92665      30070.215      0.99484732    -8228.2744    
    651200   299.40988      80.924417      30070.215      0.99484732    -8251.1896    
    651300   295.0497      -99.432659      30070.215      0.99484732    -8290.3696    
    651400   294.48592      508.57283      30070.215      0.99484732    -8339.5851    
    651500   292.96214     -295.35514      30070.215      0.99484732    -8370.0442    
    651600   298.29988      87.221121      30070.215      0.99484732    -8295.7975    
    651700   299.97474     -88.476622      30070.215      0.99484732    -8255.5216    
    651800   299.93925      49.548862      30070.215      0.99484732    -8234.5262    
    651900   298.5469       680.45579      30070.215      0.99484732    -8225.1554    
    652000   295.37777     -72.173609      30070.215      0.99484732    -8285.4953    
    652100   295.20878      4.9113245      30070.215      0.99484732    -8327.887     
    652200   301.61482      244.05155      30070.215      0.99484732    -8296.9388    
    652300   307.9341       392.57894      30070.215      0.99484732    -8272.9471    
    652400   281.64085      151.52999      30070.215      0.99484732    -8359.3561    
    652500   297.12031     -165.79062      30070.215      0.99484732    -8368.555     
    652600   295.31551     -212.6905       30070.215      0.99484732    -8317.3488    
    652700   297.10216      569.2882       30070.215      0.99484732    -8251.6735    
    652800   299.78727     -278.07717      30070.215      0.99484732    -8223.6795    
    652900   299.76467      8.7108729      30070.215      0.99484732    -8196.7102    
    653000   310.6967       148.07158      30070.215      0.99484732    -8150.3501    
    653100   298.63357      236.92095      30070.215      0.99484732    -8195.4769    
    653200   295.87797     -31.23232       30070.215      0.99484732    -8277.099     
    653300   298.99419      192.09839      30070.215      0.99484732    -8280.841     
    653400   298.53992     -617.76931      30070.215      0.99484732    -8257.9823    
    653500   295.28564      323.73683      30070.215      0.99484732    -8235.4761    
    653600   299.14406     -64.638773      30070.215      0.99484732    -8201.6911    
    653700   309.54933     -173.35831      30070.215      0.99484732    -8121.6985    
    653800   304.81497      290.41029      30070.215      0.99484732    -8130.1558    
    653900   304.35941      700.34645      30070.215      0.99484732    -8183.2402    
    654000   303.26941      336.01759      30070.215      0.99484732    -8227.0241    
    654100   296.57671      104.20729      30070.215      0.99484732    -8285.1867    
    654200   300.8449      -599.4124       30070.215      0.99484732    -8300.5869    
    654300   302.73008      45.878351      30070.215      0.99484732    -8288.2708    
    654400   298.69528     -103.23704      30070.215      0.99484732    -8255.848     
    654500   310.33979      831.4559       30070.215      0.99484732    -8193.5466    
    654600   309.66179      257.43918      30070.215      0.99484732    -8243.8118    
    654700   297.79651      273.21093      30070.215      0.99484732    -8303.5732    
    654800   295.13023     -260.50109      30070.215      0.99484732    -8332.4057    
    654900   295.09313     -14.432218      30070.215      0.99484732    -8320.8137    
    655000   298.45726      262.39652      30070.215      0.99484732    -8254.2239    
    655100   293.23192      76.777146      30070.215      0.99484732    -8217.2995    
    655200   302.33025      84.343818      30070.215      0.99484732    -8201.5782    
    655300   311.40876     -248.37649      30070.215      0.99484732    -8228.6808    
    655400   297.57218      195.95904      30070.215      0.99484732    -8283.8588    
    655500   303.3739      -124.75716      30070.215      0.99484732    -8305.061     
    655600   304.91632      279.15417      30070.215      0.99484732    -8307.4818    
    655700   297.04059      127.46458      30070.215      0.99484732    -8321.2286    
    655800   281.48722     -288.30124      30070.215      0.99484732    -8363.2093    
    655900   302.23424     -469.63331      30070.215      0.99484732    -8298.5577    
    656000   300.81267     -184.73259      30070.215      0.99484732    -8244.7754    
    656100   298.99286     -295.02622      30070.215      0.99484732    -8222.4599    
    656200   304.35037     -735.85234      30070.215      0.99484732    -8192.9334    
    656300   307.61764      21.27201       30070.215      0.99484732    -8151.5355    
    656400   307.18917      857.43798      30070.215      0.99484732    -8169.3726    
    656500   299.23716     -344.19335      30070.215      0.99484732    -8264.0999    
    656600   300.20023      483.98048      30070.215      0.99484732    -8278.164     
    656700   301.39254      442.36101      30070.215      0.99484732    -8270.0274    
    656800   291.21779      442.70194      30070.215      0.99484732    -8266.9481    
    656900   299.10092      188.11474      30070.215      0.99484732    -8234.6187    
    657000   305.87281     -12.394011      30070.215      0.99484732    -8175.4184    
    657100   296.66655     -317.43632      30070.215      0.99484732    -8162.117     
    657200   304.26762     -224.57714      30070.215      0.99484732    -8176.7186    
    657300   296.58991     -235.84512      30070.215      0.99484732    -8261.7969    
    657400   302.24419     -256.03078      30070.215      0.99484732    -8261.5764    
    657500   292.31597     -835.3658       30070.215      0.99484732    -8213.419     
    657600   298.48176     -277.24514      30070.215      0.99484732    -8164.9218    
    657700   305.92806     -410.02466      30070.215      0.99484732    -8170.5166    
    657800   299.48161     -141.44025      30070.215      0.99484732    -8197.6243    
    657900   298.40033     -647.83098      30070.215      0.99484732    -8229.5208    
    658000   299.81613     -641.46952      30070.215      0.99484732    -8255.1451    
    658100   295.67144     -140.16849      30070.215      0.99484732    -8286.6828    
    658200   292.46699     -712.4895       30070.215      0.99484732    -8308.5312    
    658300   301.96348     -743.77923      30070.215      0.99484732    -8234.9754    
    658400   301.97785     -123.46495      30070.215      0.99484732    -8178.8852    
    658500   303.97731     -898.37688      30070.215      0.99484732    -8180.5221    
    658600   303.64201     -360.55266      30070.215      0.99484732    -8232.018     
    658700   292.36518      152.50689      30070.215      0.99484732    -8269.4002    
    658800   285.6188      -102.85181      30070.215      0.99484732    -8336.4558    
    658900   297.67563     -37.47384       30070.215      0.99484732    -8371.9098    
    659000   296.31271     -212.3582       30070.215      0.99484732    -8313.0997    
    659100   302.14218      575.37511      30070.215      0.99484732    -8235.4528    
    659200   301.45301     -710.14186      30070.215      0.99484732    -8218.0164    
    659300   299.73357     -642.01998      30070.215      0.99484732    -8216.0015    
    659400   298.35336      61.899995      30070.215      0.99484732    -8202.9836    
    659500   300.76777     -429.75004      30070.215      0.99484732    -8218.1008    
    659600   301.50909     -36.509829      30070.215      0.99484732    -8242.9376    
    659700   299.04932     -174.83394      30070.215      0.99484732    -8283.7177    
    659800   294.98723     -589.08396      30070.215      0.99484732    -8294.3562    
    659900   300.03072     -331.26798      30070.215      0.99484732    -8238.6039    
    660000   300.88283     -653.39789      30070.215      0.99484732    -8166.5296    
    660100   304.79663      35.415324      30070.215      0.99484732    -8154.1165    
    660200   297.94265      164.50788      30070.215      0.99484732    -8198.8306    
    660300   295.15848      127.18942      30070.215      0.99484732    -8245.486     
    660400   297.96151     -609.67337      30070.215      0.99484732    -8249.7819    
    660500   297.65621     -261.77536      30070.215      0.99484732    -8248.5388    
    660600   306.58751     -130.46572      30070.215      0.99484732    -8180.9398    
    660700   317.18081     -300.82386      30070.215      0.99484732    -8118.9949    
    660800   300.96366     -126.25761      30070.215      0.99484732    -8196.6372    
    660900   295.5946      -814.48333      30070.215      0.99484732    -8260.339     
    661000   301.39282      117.38         30070.215      0.99484732    -8271.4954    
    661100   302.37481     -389.78083      30070.215      0.99484732    -8271.5527    
    661200   295.77071     -174.15979      30070.215      0.99484732    -8284.1414    
    661300   288.58572     -369.16977      30070.215      0.99484732    -8305.3124    
    661400   296.09868     -207.22532      30070.215      0.99484732    -8271.7918    
    661500   306.10843     -4.8771344      30070.215      0.99484732    -8203.7049    
    661600   297.31896     -366.82282      30070.215      0.99484732    -8196.034     
    661700   301.88847     -202.536        30070.215      0.99484732    -8185.0252    
    661800   301.0972       311.45705      30070.215      0.99484732    -8191.4045    
    661900   293.04593     -239.87918      30070.215      0.99484732    -8251.6629    
    662000   296.78568     -553.79536      30070.215      0.99484732    -8292.2091    
    662100   299.86536     -410.84749      30070.215      0.99484732    -8300.2931    
    662200   296.69125      221.51418      30070.215      0.99484732    -8287.8397    
    662300   308.38665      263.71798      30070.215      0.99484732    -8241.9643    
    662400   302.13207      220.10384      30070.215      0.99484732    -8225.0516    
    662500   297.18644      582.33685      30070.215      0.99484732    -8261.6575    
    662600   295.3953      -73.197342      30070.215      0.99484732    -8332.2187    
    662700   297.95295      139.02047      30070.215      0.99484732    -8344.229     
    662800   300.44794     -332.6242       30070.215      0.99484732    -8335.7473    
    662900   307.3484      -93.690353      30070.215      0.99484732    -8251.9452    
    663000   305.87235      205.68877      30070.215      0.99484732    -8216.9397    
    663100   292.89643      260.45527      30070.215      0.99484732    -8239.6459    
    663200   304.81158      106.56255      30070.215      0.99484732    -8257.8105    
    663300   297.83845     -653.28458      30070.215      0.99484732    -8289.931     
    663400   295.61223      151.99952      30070.215      0.99484732    -8292.9354    
    663500   297.47093      128.48681      30070.215      0.99484732    -8269.8836    
    663600   308.90569      311.14468      30070.215      0.99484732    -8239.6596    
    663700   300.4097      -319.74468      30070.215      0.99484732    -8216.0193    
    663800   305.56154     -178.04124      30070.215      0.99484732    -8184.6019    
    663900   303.98212     -42.371548      30070.215      0.99484732    -8178.0825    
    664000   293.34362      70.424223      30070.215      0.99484732    -8259.3419    
    664100   300.28787      413.42959      30070.215      0.99484732    -8297.4322    
    664200   297.06833      458.88427      30070.215      0.99484732    -8313.6003    
    664300   301.13627     -265.03306      30070.215      0.99484732    -8328.2808    
    664400   293.25153      53.09987       30070.215      0.99484732    -8355.4237    
    664500   294.75665      158.99116      30070.215      0.99484732    -8300.9494    
    664600   303.52447      583.84867      30070.215      0.99484732    -8237.483     
    664700   308.09212      373.40705      30070.215      0.99484732    -8220.3907    
    664800   306.04071      333.04931      30070.215      0.99484732    -8271.6357    
    664900   296.11056     -209.17098      30070.215      0.99484732    -8329.999     
    665000   308.77773      84.132905      30070.215      0.99484732    -8312.3371    
    665100   296.68527     -327.48267      30070.215      0.99484732    -8321.5666    
    665200   296.48563      39.747713      30070.215      0.99484732    -8347.9792    
    665300   295.26778     -405.97576      30070.215      0.99484732    -8397.0415    
    665400   296.38006      160.78964      30070.215      0.99484732    -8362.7055    
    665500   296.71148      658.79214      30070.215      0.99484732    -8293.2811    
    665600   302.74992     -178.68771      30070.215      0.99484732    -8281.8562    
    665700   301.02881      363.72618      30070.215      0.99484732    -8292.9099    
    665800   300.08511      132.21424      30070.215      0.99484732    -8309.5651    
    665900   304.296       -188.47324      30070.215      0.99484732    -8347.1539    
    666000   296.10634     -48.630974      30070.215      0.99484732    -8366.6672    
    666100   295.01485      188.41803      30070.215      0.99484732    -8315.517     
    666200   306.03924     -343.80786      30070.215      0.99484732    -8258.2086    
    666300   296.28488     -230.37049      30070.215      0.99484732    -8242.9243    
    666400   303.34863      73.813383      30070.215      0.99484732    -8212.9154    
    666500   296.20249     -404.39968      30070.215      0.99484732    -8178.9107    
    666600   310.89243      50.38163       30070.215      0.99484732    -8066.3374    
    666700   306.36187      148.07209      30070.215      0.99484732    -8074.5053    
    666800   300.72497     -264.27286      30070.215      0.99484732    -8132.9161    
    666900   308.73627      124.4211       30070.215      0.99484732    -8158.3928    
    667000   302.21662     -172.28089      30070.215      0.99484732    -8229.1192    
    667100   302.14345     -13.846422      30070.215      0.99484732    -8257.8985    
    667200   301.00154      286.28991      30070.215      0.99484732    -8265.2907    
    667300   305.33919     -317.58952      30070.215      0.99484732    -8275.4241    
    667400   291.79357     -47.625782      30070.215      0.99484732    -8333.5153    
    667500   294.56301     -92.183297      30070.215      0.99484732    -8338.2268    
    667600   293.53237      106.49697      30070.215      0.99484732    -8268.2789    
    667700   301.24711      105.27686      30070.215      0.99484732    -8223.0734    
    667800   303.45545     -136.88087      30070.215      0.99484732    -8210.8864    
    667900   294.66658     -180.05519      30070.215      0.99484732    -8246.1863    
    668000   294.94269     -407.43674      30070.215      0.99484732    -8286.5251    
    668100   297.27925     -414.97643      30070.215      0.99484732    -8271.9067    
    668200   296.6438       256.62575      30070.215      0.99484732    -8247.9124    
    668300   295.77574     -440.27741      30070.215      0.99484732    -8238.8995    
    668400   299.56108     -196.86052      30070.215      0.99484732    -8265.086     
    668500   295.36865     -167.45717      30070.215      0.99484732    -8322.2876    
    668600   299.39871     -61.924686      30070.215      0.99484732    -8324.421     
    668700   295.81658     -188.71221      30070.215      0.99484732    -8257.2065    
    668800   300.70434     -266.36976      30070.215      0.99484732    -8215.0502    
    668900   298.35018     -183.63133      30070.215      0.99484732    -8206.7037    
    669000   299.53897      552.40991      30070.215      0.99484732    -8221.1523    
    669100   301.90277      211.09523      30070.215      0.99484732    -8236.7949    
    669200   297.95273     -17.450057      30070.215      0.99484732    -8276.6122    
    669300   288.16298      72.395148      30070.215      0.99484732    -8363.7262    
    669400   294.22473      126.09002      30070.215      0.99484732    -8374.8575    
    669500   288.9451       302.66975      30070.215      0.99484732    -8335.9492    
    669600   294.5439       19.682154      30070.215      0.99484732    -8283.713     
    669700   296.19017      139.32593      30070.215      0.99484732    -8229.9128    
    669800   298.95518     -7.8503435      30070.215      0.99484732    -8202.4363    
    669900   301.2403       478.9361       30070.215      0.99484732    -8188.2303    
    670000   298.60935     -119.14547      30070.215      0.99484732    -8213.4454    
    670100   295.56653     -135.79271      30070.215      0.99484732    -8281.6091    
    670200   290.58752      440.76918      30070.215      0.99484732    -8276.1362    
    670300   307.85252     -61.023614      30070.215      0.99484732    -8213.602     
    670400   302.01534     -162.06241      30070.215      0.99484732    -8213.2895    
    670500   299.26885     -470.89365      30070.215      0.99484732    -8212.2399    
    670600   310.02426     -118.89762      30070.215      0.99484732    -8229.8159    
    670700   301.16889     -319.70187      30070.215      0.99484732    -8241.8327    
    670800   297.82915     -88.009812      30070.215      0.99484732    -8240.9059    
    670900   300.27549     -309.87608      30070.215      0.99484732    -8201.5506    
    671000   311.18936      421.93358      30070.215      0.99484732    -8130.9417    
    671100   299.13673     -243.87946      30070.215      0.99484732    -8135.1344    
    671200   295.66907     -412.13113      30070.215      0.99484732    -8216.7108    
    671300   290.58731     -121.72611      30070.215      0.99484732    -8241.9504    
    671400   301.45118     -1123.6895      30070.215      0.99484732    -8199.5598    
    671500   302.24828     -434.08732      30070.215      0.99484732    -8162.8238    
    671600   302.46842     -566.60444      30070.215      0.99484732    -8145.4317    
    671700   309.22144     -85.019151      30070.215      0.99484732    -8121.0706    
    671800   302.01535      69.30662       30070.215      0.99484732    -8179.5441    
    671900   297.29946     -509.09995      30070.215      0.99484732    -8234.0065    
    672000   301.79727      288.9642       30070.215      0.99484732    -8228.9806    
    672100   298.14798      14.830823      30070.215      0.99484732    -8189.8361    
    672200   309.34917      308.11656      30070.215      0.99484732    -8133.2314    
    672300   304.37872      109.58038      30070.215      0.99484732    -8156.8306    
    672400   297.07255     -277.46642      30070.215      0.99484732    -8191.3817    
    672500   295.21915     -271.26293      30070.215      0.99484732    -8184.8213    
    672600   301.08092      196.57682      30070.215      0.99484732    -8180.9247    
    672700   290.30721     -364.25499      30070.215      0.99484732    -8258.0775    
    672800   295.89733      50.047163      30070.215      0.99484732    -8285.1783    
    672900   299.33369      260.03081      30070.215      0.99484732    -8267.3974    
    673000   298.80591      357.56859      30070.215      0.99484732    -8255.7687    
    673100   290.23976      623.47112      30070.215      0.99484732    -8264.3362    
    673200   301.10698      264.44117      30070.215      0.99484732    -8262.4002    
    673300   306.4223      -247.33687      30070.215      0.99484732    -8260.8648    
    673400   290.65632     -351.84752      30070.215      0.99484732    -8313.0123    
    673500   294.704        198.29219      30070.215      0.99484732    -8299.9507    
    673600   310.51955      721.48944      30070.215      0.99484732    -8240.7386    
    673700   299.54911     -448.17548      30070.215      0.99484732    -8264.8644    
    673800   296.65837     -68.473117      30070.215      0.99484732    -8277.3579    
    673900   296.46249     -174.97546      30070.215      0.99484732    -8267.1113    
    674000   305.85475      204.99684      30070.215      0.99484732    -8266.9928    
    674100   301.16533      266.30941      30070.215      0.99484732    -8331.9784    
    674200   288.28466     -132.72261      30070.215      0.99484732    -8381.5843    
    674300   298.04452      182.48505      30070.215      0.99484732    -8333.582     
    674400   298.17689     -493.82709      30070.215      0.99484732    -8310.748     
    674500   295.04034     -637.13253      30070.215      0.99484732    -8316.4309    
    674600   304.99765      127.40757      30070.215      0.99484732    -8239.9373    
    674700   307.58605      24.885512      30070.215      0.99484732    -8204.2368    
    674800   298.65029      251.56765      30070.215      0.99484732    -8265.9712    
    674900   295.58837     -90.786106      30070.215      0.99484732    -8305.9845    
    675000   304.12555     -6.391105       30070.215      0.99484732    -8284.9902    
    675100   305.91576      17.293553      30070.215      0.99484732    -8264.4942    
    675200   299.39715      384.02628      30070.215      0.99484732    -8282.7299    
    675300   299.45764     -140.39228      30070.215      0.99484732    -8340.0848    
    675400   296.89157     -340.81957      30070.215      0.99484732    -8353.6703    
    675500   293.97214      104.73756      30070.215      0.99484732    -8333.4992    
    675600   307.35805     -497.29801      30070.215      0.99484732    -8275.04      
    675700   303.68407     -395.80605      30070.215      0.99484732    -8220.9806    
    675800   300.1218       513.65622      30070.215      0.99484732    -8218.1613    
    675900   304.54301     -167.05463      30070.215      0.99484732    -8310.8416    
    676000   304.56279      430.39208      30070.215      0.99484732    -8359.8622    
    676100   295.46413     -350.35159      30070.215      0.99484732    -8366.3379    
    676200   293.75352      33.870602      30070.215      0.99484732    -8325.8277    
    676300   307.39499      283.38169      30070.215      0.99484732    -8255.3249    
    676400   306.18588      265.6723       30070.215      0.99484732    -8248.0167    
    676500   296.63958     -89.079936      30070.215      0.99484732    -8261.1919    
    676600   307.43784      627.47594      30070.215      0.99484732    -8254.811     
    676700   299.18783     -250.33986      30070.215      0.99484732    -8313.0863    
    676800   286.69351     -197.32389      30070.215      0.99484732    -8354.3714    
    676900   298.56652     -627.66578      30070.215      0.99484732    -8318.9328    
    677000   302.63503     -90.752088      30070.215      0.99484732    -8254.6969    
    677100   300.50167      114.1483       30070.215      0.99484732    -8233.8322    
    677200   298.98003      598.02216      30070.215      0.99484732    -8246.0204    
    677300   298.67722      48.51299       30070.215      0.99484732    -8276.6709    
    677400   297.46751     -394.14138      30070.215      0.99484732    -8276.0645    
    677500   302.42656      509.76315      30070.215      0.99484732    -8260.852     
    677600   296.13224      234.59833      30070.215      0.99484732    -8277.7442    
    677700   293.55973      426.69842      30070.215      0.99484732    -8306.1722    
    677800   301.54092     -329.65976      30070.215      0.99484732    -8328.5741    
    677900   287.67305     -240.83139      30070.215      0.99484732    -8371.0044    
    678000   298.19227      30.085177      30070.215      0.99484732    -8397.4033    
    678100   283.04276      78.168794      30070.215      0.99484732    -8428.6495    
    678200   295.99762      218.791        30070.215      0.99484732    -8346.765     
    678300   295.46453      379.99816      30070.215      0.99484732    -8301.0889    
    678400   306.56042      386.82554      30070.215      0.99484732    -8255.1539    
    678500   304.89169      238.55271      30070.215      0.99484732    -8245.1705    
    678600   297.48672     -45.448308      30070.215      0.99484732    -8323.8999    
    678700   297.4584      -271.92813      30070.215      0.99484732    -8349.7585    
    678800   300.49715     -189.94171      30070.215      0.99484732    -8306.6474    
    678900   310.83093     -147.85409      30070.215      0.99484732    -8267.332     
    679000   301.01509     -205.52818      30070.215      0.99484732    -8272.1765    
    679100   295.32994     -203.40916      30070.215      0.99484732    -8284.4901    
    679200   297.69931      267.71396      30070.215      0.99484732    -8265.5826    
    679300   313.8797       356.46733      30070.215      0.99484732    -8212.1245    
    679400   296.16406      377.31229      30070.215      0.99484732    -8223.6815    
    679500   293.50254      287.92166      30070.215      0.99484732    -8267.1505    
    679600   301.75414     -306.37664      30070.215      0.99484732    -8318.6753    
    679700   295.17582      348.48602      30070.215      0.99484732    -8354.0894    
    679800   293.46852     -65.265076      30070.215      0.99484732    -8362.7199    
    679900   293.50853     -448.9897       30070.215      0.99484732    -8299.1598    
    680000   297.77943     -83.449795      30070.215      0.99484732    -8212.9177    
    680100   297.26449      732.43866      30070.215      0.99484732    -8184.9667    
    680200   296.59658     -222.35684      30070.215      0.99484732    -8222.2168    
    680300   297.66529     -662.43676      30070.215      0.99484732    -8261.9809    
    680400   301.15031     -424.72259      30070.215      0.99484732    -8296.2779    
    680500   298.14143     -354.68261      30070.215      0.99484732    -8323.2963    
    680600   294.9623      -242.1002       30070.215      0.99484732    -8342.1281    
    680700   301.46313     -100.04799      30070.215      0.99484732    -8309.2951    
    680800   301.19441      143.18061      30070.215      0.99484732    -8242.5675    
    680900   301.30725     -8.6370593      30070.215      0.99484732    -8225.2701    
    681000   309.25705     -609.09173      30070.215      0.99484732    -8241.7788    
    681100   295.19897     -610.23131      30070.215      0.99484732    -8314.6586    
    681200   290.93036     -126.2217       30070.215      0.99484732    -8353.0476    
    681300   301.99205     -575.4162       30070.215      0.99484732    -8294.0395    
    681400   296.24653      23.96335       30070.215      0.99484732    -8267.385     
    681500   303.91317      383.04967      30070.215      0.99484732    -8252.8077    
    681600   297.22315      227.90827      30070.215      0.99484732    -8246.6863    
    681700   305.87008      120.35498      30070.215      0.99484732    -8256.2879    
    681800   290.43948     -273.70543      30070.215      0.99484732    -8314.088     
    681900   297.14196     -305.90261      30070.215      0.99484732    -8324.5685    
    682000   293.05856     -637.57602      30070.215      0.99484732    -8259.1265    
    682100   302.82599     -249.32729      30070.215      0.99484732    -8189.9481    
    682200   299.95387      298.32857      30070.215      0.99484732    -8180.7804    
    682300   299.97896     -378.19659      30070.215      0.99484732    -8210.3031    
    682400   293.26095     -443.45118      30070.215      0.99484732    -8252.993     
    682500   303.45647      158.93531      30070.215      0.99484732    -8276.6056    
    682600   295.32435     -32.284546      30070.215      0.99484732    -8347.1643    
    682700   285.76637      114.82014      30070.215      0.99484732    -8346.179     
    682800   298.69999      335.13588      30070.215      0.99484732    -8274.4961    
    682900   293.42816     -94.77001       30070.215      0.99484732    -8239.2329    
    683000   301.30727      292.94609      30070.215      0.99484732    -8197.7725    
    683100   298.49621      548.67996      30070.215      0.99484732    -8168.5303    
    683200   308.24388     -317.66199      30070.215      0.99484732    -8156.0937    
    683300   298.84172     -56.783897      30070.215      0.99484732    -8240.1304    
    683400   302.97844     -273.26152      30070.215      0.99484732    -8298.6964    
    683500   294.26824     -761.66386      30070.215      0.99484732    -8314.2958    
    683600   303.51527     -458.59121      30070.215      0.99484732    -8256.2922    
    683700   301.42828     -176.01039      30070.215      0.99484732    -8201.2566    
    683800   304.44555     -515.41389      30070.215      0.99484732    -8202.0545    
    683900   300.25344      59.908059      30070.215      0.99484732    -8226.7064    
    684000   295.49592     -328.49673      30070.215      0.99484732    -8252.8101    
    684100   301.56154     -53.89036       30070.215      0.99484732    -8233.3954    
    684200   308.38259     -689.18867      30070.215      0.99484732    -8156.2763    
    684300   303.45151      61.547301      30070.215      0.99484732    -8128.8706    
    684400   308.35976     -617.85446      30070.215      0.99484732    -8129.9053    
    684500   301.9547      -297.50838      30070.215      0.99484732    -8205.0627    
    684600   297.60451     -905.36243      30070.215      0.99484732    -8230.8738    
    684700   299.44612     -347.92791      30070.215      0.99484732    -8210.993     
    684800   304.92687     -609.42642      30070.215      0.99484732    -8205.7512    
    684900   299.84246      610.2138       30070.215      0.99484732    -8229.2782    
    685000   304.12107      555.05082      30070.215      0.99484732    -8238.4351    
    685100   300.51844      357.99354      30070.215      0.99484732    -8246.0476    
    685200   299.20448      682.75924      30070.215      0.99484732    -8252.4957    
    685300   305.37359      425.8101       30070.215      0.99484732    -8236.3144    
    685400   308.92787      429.07955      30070.215      0.99484732    -8193.2378    
    685500   310.53797      747.70328      30070.215      0.99484732    -8181.4115    
    685600   300.32659      71.745497      30070.215      0.99484732    -8261.3246    
    685700   300.56118      394.56104      30070.215      0.99484732    -8296.2994    
    685800   294.51109      474.09104      30070.215      0.99484732    -8304.3812    
    685900   302.62182     -48.310513      30070.215      0.99484732    -8293.8056    
    686000   302.74621      307.09528      30070.215      0.99484732    -8287.6305    
    686100   294.0511      -538.05427      30070.215      0.99484732    -8305.447     
    686200   297.71722     -277.77052      30070.215      0.99484732    -8265.2306    
    686300   305.72151      71.804381      30070.215      0.99484732    -8214.0331    
    686400   295.53552      446.79409      30070.215      0.99484732    -8215.6805    
    686500   297.40186     -265.00885      30070.215      0.99484732    -8233.7588    
    686600   303.08604     -244.3514       30070.215      0.99484732    -8226.2773    
    686700   298.00725      219.98183      30070.215      0.99484732    -8191.2222    
    686800   299.97732      81.380352      30070.215      0.99484732    -8167.4639    
    686900   296.60348     -222.62922      30070.215      0.99484732    -8179.0225    
    687000   301.86977     -635.43518      30070.215      0.99484732    -8232.3875    
    687100   293.91378      88.211478      30070.215      0.99484732    -8285.7992    
    687200   290.96264     -231.24483      30070.215      0.99484732    -8260.1096    
    687300   300.89096     -432.62574      30070.215      0.99484732    -8190.7854    
    687400   300.37571     -36.549332      30070.215      0.99484732    -8189.9923    
    687500   302.03205     -143.53447      30070.215      0.99484732    -8215.4877    
    687600   293.35811     -1034.1641      30070.215      0.99484732    -8267.9988    
    687700   305.30302     -335.1546       30070.215      0.99484732    -8261.0214    
    687800   309.77193      213.32604      30070.215      0.99484732    -8179.9887    
    687900   307.44202     -0.082077104    30070.215      0.99484732    -8161.2876    
    688000   305.076       -725.39336      30070.215      0.99484732    -8216.2561    
    688100   297.75152     -601.6589       30070.215      0.99484732    -8247.1656    
    688200   304.26976      423.7519       30070.215      0.99484732    -8264.4574    
    688300   296.69322     -436.75085      30070.215      0.99484732    -8308.9409    
    688400   291.1316       268.91046      30070.215      0.99484732    -8320.8231    
    688500   299.6043       27.589741      30070.215      0.99484732    -8239.3044    
    688600   306.94315      246.93864      30070.215      0.99484732    -8202.0788    
    688700   305.75431     -373.78104      30070.215      0.99484732    -8201.4423    
    688800   294.52937     -496.85822      30070.215      0.99484732    -8271.2359    
    688900   292.33132      208.29542      30070.215      0.99484732    -8317.6766    
    689000   292.48504      279.09261      30070.215      0.99484732    -8311.4382    
    689100   301.13757     -151.76664      30070.215      0.99484732    -8273.9503    
    689200   296.52264      611.61021      30070.215      0.99484732    -8240.5886    
    689300   300.72965      231.91155      30070.215      0.99484732    -8242.3147    
    689400   298.16637      113.06931      30070.215      0.99484732    -8236.5136    
    689500   300.32896     -274.00011      30070.215      0.99484732    -8224.4167    
    689600   303.5943       187.97795      30070.215      0.99484732    -8216.0483    
    689700   302.05482     -522.31         30070.215      0.99484732    -8241.0295    
    689800   296.46068     -497.7058       30070.215      0.99484732    -8282.4952    
    689900   291.93049      195.0521       30070.215      0.99484732    -8290.2393    
    690000   295.50044     -301.20035      30070.215      0.99484732    -8247.3122    
    690100   307.00442      207.23796      30070.215      0.99484732    -8177.8199    
    690200   302.13542      211.08482      30070.215      0.99484732    -8174.2321    
    690300   297.90774     -407.08321      30070.215      0.99484732    -8212.6872    
    690400   301.45069     -6.858465       30070.215      0.99484732    -8225.8548    
    690500   301.22844     -458.91102      30070.215      0.99484732    -8259.5782    
    690600   298.27156      125.47964      30070.215      0.99484732    -8363.9239    
    690700   294.42958      456.04033      30070.215      0.99484732    -8348.9637    
    690800   302.47233      268.75592      30070.215      0.99484732    -8295.5334    
    690900   302.1916       545.44353      30070.215      0.99484732    -8267.058     
    691000   298.59899      489.26264      30070.215      0.99484732    -8227.1171    
    691100   303.66156      248.06645      30070.215      0.99484732    -8138.7768    
    691200   303.18051     -199.09508      30070.215      0.99484732    -8129.4641    
    691300   302.69869     -234.34505      30070.215      0.99484732    -8165.5166    
    691400   299.11184      77.484721      30070.215      0.99484732    -8197.7438    
    691500   305.70797      50.591879      30070.215      0.99484732    -8212.9081    
    691600   294.60539     -374.96666      30070.215      0.99484732    -8305.87      
    691700   286.30238     -253.57339      30070.215      0.99484732    -8323.4014    
    691800   299.41966     -142.71412      30070.215      0.99484732    -8254.4413    
    691900   299.06562     -115.85921      30070.215      0.99484732    -8215.6754    
    692000   309.30674     -36.719996      30070.215      0.99484732    -8203.671     
    692100   297.15758     -40.448623      30070.215      0.99484732    -8257.2288    
    692200   297.27484     -735.15884      30070.215      0.99484732    -8293.2553    
    692300   295.91789      108.77637      30070.215      0.99484732    -8336.0712    
    692400   286.61194     -498.8894       30070.215      0.99484732    -8387.9037    
    692500   293.23218     -29.108316      30070.215      0.99484732    -8326.8989    
    692600   295.75341     -229.20479      30070.215      0.99484732    -8256.1209    
    692700   308.20916      97.654195      30070.215      0.99484732    -8205.0743    
    692800   304.2427      -176.11649      30070.215      0.99484732    -8213.1       
    692900   297.28269      201.71241      30070.215      0.99484732    -8277.4665    
    693000   292.5055      -406.23743      30070.215      0.99484732    -8309.5309    
    693100   301.20136      322.0117       30070.215      0.99484732    -8277.309     
    693200   308.66543     -68.430572      30070.215      0.99484732    -8267.7497    
    693300   298.46043     -56.240107      30070.215      0.99484732    -8281.4543    
    693400   303.01239     -161.88666      30070.215      0.99484732    -8219.3934    
    693500   310.94765      311.21417      30070.215      0.99484732    -8170.9148    
    693600   298.18597      991.1043       30070.215      0.99484732    -8227.8616    
    693700   303.71145      304.71134      30070.215      0.99484732    -8244.188     
    693800   295.5224       107.17675      30070.215      0.99484732    -8236.0564    
    693900   303.96152      261.14739      30070.215      0.99484732    -8159.8117    
    694000   301.23819      519.15711      30070.215      0.99484732    -8128.9096    
    694100   304.88429      21.719319      30070.215      0.99484732    -8155.3995    
    694200   298.90151     -565.48382      30070.215      0.99484732    -8258.3642    
    694300   299.7873       149.1625       30070.215      0.99484732    -8279.3719    
    694400   292.62168      258.59084      30070.215      0.99484732    -8297.2114    
    694500   301.42663      18.530992      30070.215      0.99484732    -8250.6509    
    694600   306.25698     -156.48888      30070.215      0.99484732    -8200.3539    
    694700   303.4938      -253.1561       30070.215      0.99484732    -8212.841     
    694800   300.52732     -344.26629      30070.215      0.99484732    -8250.2086    
    694900   291.99239      208.98551      30070.215      0.99484732    -8305.8491    
    695000   294.50653     -699.73951      30070.215      0.99484732    -8358.593     
    695100   294.31521     -377.12472      30070.215      0.99484732    -8295.1085    
    695200   303.98874      257.32784      30070.215      0.99484732    -8231.8092    
    695300   300.16042     -610.20185      30070.215      0.99484732    -8222.3638    
    695400   299.42703     -183.48412      30070.215      0.99484732    -8207.8302    
    695500   314.23444     -63.788875      30070.215      0.99484732    -8160.8148    
    695600   298.56902      778.88767      30070.215      0.99484732    -8224.6891    
    695700   296.62105     -219.29658      30070.215      0.99484732    -8291.2684    
    695800   299.40251      235.32999      30070.215      0.99484732    -8292.7836    
    695900   299.8677       304.95943      30070.215      0.99484732    -8270.7682    
    696000   299.04156     -421.54922      30070.215      0.99484732    -8243.271     
    696100   302.2703      -337.11116      30070.215      0.99484732    -8179.4514    
    696200   307.95475     -604.94125      30070.215      0.99484732    -8138.2745    
    696300   310.32382     -389.78696      30070.215      0.99484732    -8178.1294    
    696400   300.76782      324.55023      30070.215      0.99484732    -8237.5401    
    696500   299.16025     -261.79135      30070.215      0.99484732    -8238.469     
    696600   304.61517      491.01987      30070.215      0.99484732    -8221.2444    
    696700   299.20682      80.529864      30070.215      0.99484732    -8272.9245    
    696800   293.53131     -416.91636      30070.215      0.99484732    -8308.7792    
    696900   299.03617     -126.79374      30070.215      0.99484732    -8259.8751    
    697000   304.8851       207.91477      30070.215      0.99484732    -8237.3319    
    697100   305.25155      357.47611      30070.215      0.99484732    -8227.7014    
    697200   303.25616      68.478144      30070.215      0.99484732    -8270.3942    
    697300   299.66399     -233.25519      30070.215      0.99484732    -8338.3367    
    697400   292.04282     -357.44976      30070.215      0.99484732    -8331.698     
    697500   298.02871     -549.33204      30070.215      0.99484732    -8302.8675    
    697600   302.18091     -235.86288      30070.215      0.99484732    -8275.8277    
    697700   300.25492     -356.6481       30070.215      0.99484732    -8265.6453    
    697800   301.34384     -281.38357      30070.215      0.99484732    -8250.8793    
    697900   302.39454      136.51344      30070.215      0.99484732    -8206.9044    
    698000   307.10349      13.314187      30070.215      0.99484732    -8183.5579    
    698100   298.74597     -33.015961      30070.215      0.99484732    -8223.4322    
    698200   303.40295      41.856472      30070.215      0.99484732    -8284.3568    
    698300   306.6595      -478.76098      30070.215      0.99484732    -8311.7364    
    698400   294.62651      146.47806      30070.215      0.99484732    -8309.1535    
    698500   302.881        984.78268      30070.215      0.99484732    -8198.2781    
    698600   298.47435      449.12915      30070.215      0.99484732    -8196.2004    
    698700   299.05061     -363.11516      30070.215      0.99484732    -8225.5892    
    698800   302.67816     -111.99229      30070.215      0.99484732    -8248.2958    
    698900   290.72522      434.8066       30070.215      0.99484732    -8291.522     
    699000   293.88787      295.43544      30070.215      0.99484732    -8342.1207    
    699100   295.21344     -100.23956      30070.215      0.99484732    -8350.5858    
    699200   300.04193     -244.28353      30070.215      0.99484732    -8274.4489    
    699300   298.59969     -329.3261       30070.215      0.99484732    -8223.567     
    699400   299.84108     -247.97653      30070.215      0.99484732    -8195.6863    
    699500   299.77995     -419.56645      30070.215      0.99484732    -8207.5729    
    699600   295.4466      -771.05849      30070.215      0.99484732    -8236.5116    
    699700   299.92777     -424.80041      30070.215      0.99484732    -8239.4516    
    699800   301.88639     -460.86816      30070.215      0.99484732    -8190.2178    
    699900   304.25751     -308.19268      30070.215      0.99484732    -8148.2295    
    700000   292.99126      318.81874      30070.215      0.99484732    -8142.4017    
    700100   299.24476      159.0905       30070.215      0.99484732    -8169.352     
    700200   301.97198     -379.15994      30070.215      0.99484732    -8249.5452    
    700300   293.12136     -110.52643      30070.215      0.99484732    -8267.1985    
    700400   299.00707      120.87456      30070.215      0.99484732    -8255.4578    
    700500   304.69766     -276.34747      30070.215      0.99484732    -8207.1467    
    700600   313.08691      191.36886      30070.215      0.99484732    -8174.655     
    700700   292.50283     -562.23239      30070.215      0.99484732    -8245.6351    
    700800   298.54009     -666.43953      30070.215      0.99484732    -8281.511     
    700900   302.60099     -285.57431      30070.215      0.99484732    -8270.965     
    701000   298.48287     -517.30113      30070.215      0.99484732    -8259.6091    
    701100   298.24431      94.973894      30070.215      0.99484732    -8211.4534    
    701200   308.27848     -19.785763      30070.215      0.99484732    -8144.7903    
    701300   300.00742      235.23395      30070.215      0.99484732    -8142.8633    
    701400   299.80132     -671.92189      30070.215      0.99484732    -8209.872     
    701500   295.9378       261.07059      30070.215      0.99484732    -8282.5762    
    701600   295.23536     -133.09085      30070.215      0.99484732    -8300.601     
    701700   308.79808      368.71606      30070.215      0.99484732    -8278.4884    
    701800   293.42513     -97.285722      30070.215      0.99484732    -8255.4002    
    701900   312.27302     -139.94916      30070.215      0.99484732    -8178.2991    
    702000   308.93496      249.46925      30070.215      0.99484732    -8164.3436    
    702100   303.86475     -467.24205      30070.215      0.99484732    -8234.3417    
    702200   295.76385     -234.3439       30070.215      0.99484732    -8244.8208    
    702300   306.7978       227.40911      30070.215      0.99484732    -8218.0907    
    702400   306.02917      534.70765      30070.215      0.99484732    -8248.1915    
    702500   289.87431      115.54704      30070.215      0.99484732    -8335.9945    
    702600   297.21678     -146.94495      30070.215      0.99484732    -8328.7713    
    702700   293.53864      181.00326      30070.215      0.99484732    -8290.1837    
    702800   303.49776      207.98797      30070.215      0.99484732    -8242.1841    
    702900   302.36839      300.83094      30070.215      0.99484732    -8208.5019    
    703000   314.65185      129.03322      30070.215      0.99484732    -8152.812     
    703100   310.20297      600.3423       30070.215      0.99484732    -8112.1723    
    703200   302.75577     -80.239786      30070.215      0.99484732    -8176.0177    
    703300   299.04537     -122.51906      30070.215      0.99484732    -8231.0447    
    703400   299.79138      160.67445      30070.215      0.99484732    -8242.2808    
    703500   304.38491      68.924205      30070.215      0.99484732    -8292.3569    
    703600   292.82098      498.61355      30070.215      0.99484732    -8346.6702    
    703700   295.93401      161.46632      30070.215      0.99484732    -8341.102     
    703800   299.94646     -62.308821      30070.215      0.99484732    -8312.707     
    703900   293.01124     -100.95636      30070.215      0.99484732    -8268.6415    
    704000   304.71686      369.55819      30070.215      0.99484732    -8242.903     
    704100   298.25633      469.85639      30070.215      0.99484732    -8258.1369    
    704200   304.68484      466.92172      30070.215      0.99484732    -8273.0105    
    704300   295.30333      35.785302      30070.215      0.99484732    -8325.2778    
    704400   294.79979     -137.78135      30070.215      0.99484732    -8312.973     
    704500   300.72904      978.14214      30070.215      0.99484732    -8219.7734    
    704600   298.71428     -381.82539      30070.215      0.99484732    -8220.721     
    704700   305.04719     -176.54729      30070.215      0.99484732    -8231.815     
    704800   289.55573      182.20148      30070.215      0.99484732    -8279.8922    
    704900   301.10198      377.70913      30070.215      0.99484732    -8301.3837    
    705000   285.66468      319.8146       30070.215      0.99484732    -8371.6586    
    705100   297.01292      263.2559       30070.215      0.99484732    -8371.3976    
    705200   292.11333      632.67457      30070.215      0.99484732    -8299.7453    
    705300   298.99237      113.61089      30070.215      0.99484732    -8248.3319    
    705400   298.7447      -16.35047       30070.215      0.99484732    -8244.6003    
    705500   303.01974     -143.84034      30070.215      0.99484732    -8244.5489    
    705600   306.81274     -352.65375      30070.215      0.99484732    -8281.2703    
    705700   304.91456     -637.28328      30070.215      0.99484732    -8351.2188    
    705800   291.24538      29.079864      30070.215      0.99484732    -8377.5692    
    705900   287.57444     -643.00734      30070.215      0.99484732    -8351.2556    
    706000   299.35539     -427.02482      30070.215      0.99484732    -8310.899     
    706100   297.07428     -114.37263      30070.215      0.99484732    -8298.846     
    706200   299.81926     -191.98001      30070.215      0.99484732    -8270.2972    
    706300   309.50095      485.44075      30070.215      0.99484732    -8214.1529    
    706400   308.28841      753.91593      30070.215      0.99484732    -8192.8953    
    706500   296.50132      93.210486      30070.215      0.99484732    -8290.8542    
    706600   300.90713     -108.7755       30070.215      0.99484732    -8330.8428    
    706700   305.25793      334.12308      30070.215      0.99484732    -8341.8925    
    706800   298.9083      -117.53656      30070.215      0.99484732    -8344.9351    
    706900   289.56273      313.97604      30070.215      0.99484732    -8388.2499    
    707000   301.30143     -285.10062      30070.215      0.99484732    -8404.1812    
    707100   296.45975      594.90339      30070.215      0.99484732    -8350.8074    
    707200   305.24089     -166.6333       30070.215      0.99484732    -8289.9406    
    707300   295.25486      291.07158      30070.215      0.99484732    -8288.1976    
    707400   301.27087     -40.334793      30070.215      0.99484732    -8322.5399    
    707500   293.32454      480.7666       30070.215      0.99484732    -8422.1612    
    707600   288.99172      446.05176      30070.215      0.99484732    -8432.2901    
    707700   290.58037     -93.210231      30070.215      0.99484732    -8372.7948    
    707800   287.61468     -246.01052      30070.215      0.99484732    -8301.9507    
    707900   301.42734     -53.880883      30070.215      0.99484732    -8248.3497    
    708000   301.15381     -18.967284      30070.215      0.99484732    -8244.5273    
    708100   303.65459     -247.66911      30070.215      0.99484732    -8264.1822    
    708200   287.3911      -627.37425      30070.215      0.99484732    -8323.9877    
    708300   292.33364     -562.7408       30070.215      0.99484732    -8301.9343    
    708400   296.23646      102.01767      30070.215      0.99484732    -8216.2594    
    708500   307.5363       11.874947      30070.215      0.99484732    -8187.1749    
    708600   300.61951      247.68954      30070.215      0.99484732    -8221.607     
    708700   299.08944     -119.20803      30070.215      0.99484732    -8283.2246    
    708800   294.90907      235.75142      30070.215      0.99484732    -8310.2634    
    708900   303.18672     -97.163686      30070.215      0.99484732    -8292.1461    
    709000   295.22212      536.5394       30070.215      0.99484732    -8264.0635    
    709100   292.03511     -46.478812      30070.215      0.99484732    -8245.0237    
    709200   304.69822      290.35962      30070.215      0.99484732    -8221.5702    
    709300   298.08863      485.80379      30070.215      0.99484732    -8242.5954    
    709400   303.41798     -139.34233      30070.215      0.99484732    -8257.4083    
    709500   292.6584       213.44542      30070.215      0.99484732    -8267.7062    
    709600   302.36629     -348.96024      30070.215      0.99484732    -8268.0528    
    709700   299.04294     -145.09606      30070.215      0.99484732    -8251.8771    
    709800   300.29868      182.44451      30070.215      0.99484732    -8230.4554    
    709900   299.88087      15.855822      30070.215      0.99484732    -8203.3257    
    710000   303.1069       328.38931      30070.215      0.99484732    -8213.0395    
    710100   301.16229      100.84216      30070.215      0.99484732    -8286.7038    
    710200   297.63649     -268.97751      30070.215      0.99484732    -8285.9478    
    710300   292.96553     -91.194034      30070.215      0.99484732    -8272.5485    
    710400   311.02753      256.06624      30070.215      0.99484732    -8179.558     
    710500   307.33761      394.64764      30070.215      0.99484732    -8159.9862    
    710600   302.20253     -155.06289      30070.215      0.99484732    -8216.9691    
    710700   301.41869      37.576673      30070.215      0.99484732    -8254.0869    
    710800   304.55486      188.82371      30070.215      0.99484732    -8270.7084    
    710900   288.24625     -272.59059      30070.215      0.99484732    -8309.2384    
    711000   302.37881     -368.74182      30070.215      0.99484732    -8296.0879    
    711100   307.13856     -117.47961      30070.215      0.99484732    -8243.9721    
    711200   298.91227     -137.24735      30070.215      0.99484732    -8247.855     
    711300   305.29685     -351.93289      30070.215      0.99484732    -8260.4193    
    711400   302.75909     -407.87563      30070.215      0.99484732    -8284.228     
    711500   293.89121     -191.69139      30070.215      0.99484732    -8297.6624    
    711600   295.53028     -80.230421      30070.215      0.99484732    -8261.3064    
    711700   306.14984      165.34285      30070.215      0.99484732    -8192.9361    
    711800   299.98186     -552.37876      30070.215      0.99484732    -8194.7863    
    711900   304.95905     -13.84948       30070.215      0.99484732    -8201.7199    
    712000   298.00209     -115.83629      30070.215      0.99484732    -8282.4304    
    712100   289.98212      763.07157      30070.215      0.99484732    -8317.7194    
    712200   304.75713     -275.71643      30070.215      0.99484732    -8274.0391    
    712300   303.38783      397.54113      30070.215      0.99484732    -8244.0033    
    712400   301.08855      524.99918      30070.215      0.99484732    -8236.4251    
    712500   300.57995      144.3989       30070.215      0.99484732    -8213.9247    
    712600   302.85463      774.01744      30070.215      0.99484732    -8159.2761    
    712700   300.8429       140.15118      30070.215      0.99484732    -8178.4944    
    712800   298.14145     -289.51946      30070.215      0.99484732    -8232.4097    
    712900   296.42409      47.259192      30070.215      0.99484732    -8268.5827    
    713000   297.09275     -208.89545      30070.215      0.99484732    -8268.477     
    713100   306.0466       365.32464      30070.215      0.99484732    -8167.3934    
    713200   299.47687      34.511138      30070.215      0.99484732    -8157.6519    
    713300   304.27807      476.20326      30070.215      0.99484732    -8178.7438    
    713400   290.09125      159.14262      30070.215      0.99484732    -8208.0616    
    713500   301.27578     -821.45908      30070.215      0.99484732    -8240.9513    
    713600   298.812       -156.37543      30070.215      0.99484732    -8286.8335    
    713700   296.90999      167.74651      30070.215      0.99484732    -8319.6252    
    713800   296.82979     -628.17798      30070.215      0.99484732    -8354.4339    
    713900   299.48326     -519.21446      30070.215      0.99484732    -8328.0341    
    714000   304.22361     -150.26336      30070.215      0.99484732    -8239.6771    
    714100   304.41853     -203.54611      30070.215      0.99484732    -8227.0791    
    714200   306.20248      107.70172      30070.215      0.99484732    -8247.5863    
    714300   302.86636     -197.98934      30070.215      0.99484732    -8314.865     
    714400   299.41145      142.67429      30070.215      0.99484732    -8356.4025    
    714500   297.38808      449.64374      30070.215      0.99484732    -8345.7114    
    714600   304.84284     -179.41035      30070.215      0.99484732    -8299.3979    
    714700   300.90628     -369.28038      30070.215      0.99484732    -8268.4388    
    714800   298.37683     -6.7577189      30070.215      0.99484732    -8245.1855    
    714900   306.59505     -391.35461      30070.215      0.99484732    -8214.8898    
    715000   302.74303     -136.63973      30070.215      0.99484732    -8228.6005    
    715100   293.27339     -142.43763      30070.215      0.99484732    -8316.2405    
    715200   301.12047     -716.29647      30070.215      0.99484732    -8313.0167    
    715300   298.92247     -215.15648      30070.215      0.99484732    -8248.7002    
    715400   298.7007      -267.788        30070.215      0.99484732    -8214.7712    
    715500   301.77943      224.31951      30070.215      0.99484732    -8197.3741    
    715600   297.88792     -156.9332       30070.215      0.99484732    -8207.7334    
    715700   300.38622     -664.68008      30070.215      0.99484732    -8231.9817    
    715800   291.22703      120.26983      30070.215      0.99484732    -8268.1891    
    715900   306.8649       160.00484      30070.215      0.99484732    -8292.9494    
    716000   291.72248      183.10104      30070.215      0.99484732    -8337.8117    
    716100   297.58203     -871.94369      30070.215      0.99484732    -8317.9834    
    716200   299.63323     -78.47756       30070.215      0.99484732    -8226.0907    
    716300   298.57218      189.93173      30070.215      0.99484732    -8198.544     
    716400   301.28148     -21.742487      30070.215      0.99484732    -8221.5754    
    716500   295.25456     -180.05506      30070.215      0.99484732    -8285.0057    
    716600   300.81413     -125.68768      30070.215      0.99484732    -8289.0148    
    716700   298.66618     -243.29332      30070.215      0.99484732    -8288.1384    
    716800   297.56131      26.302058      30070.215      0.99484732    -8235.3744    
    716900   307.39394      17.175922      30070.215      0.99484732    -8155.691     
    717000   298.09058     -167.35303      30070.215      0.99484732    -8173.6572    
    717100   304.64177     -60.787274      30070.215      0.99484732    -8213.5398    
    717200   297.09547     -50.394179      30070.215      0.99484732    -8275.6305    
    717300   293.29901      70.591809      30070.215      0.99484732    -8280.6838    
    717400   302.14931     -189.90439      30070.215      0.99484732    -8231.5972    
    717500   299.34539     -24.285561      30070.215      0.99484732    -8174.7472    
    717600   301.8583      -570.71289      30070.215      0.99484732    -8181.6564    
    717700   298.5216      -381.66121      30070.215      0.99484732    -8201.7992    
    717800   302.96279     -141.85126      30070.215      0.99484732    -8199.8724    
    717900   292.66478     -21.323668      30070.215      0.99484732    -8235.317     
    718000   297.85823      38.310326      30070.215      0.99484732    -8280.3948    
    718100   300.30153     -29.713693      30070.215      0.99484732    -8266.1928    
    718200   308.44068      306.14349      30070.215      0.99484732    -8199.1471    
    718300   305.31888      43.201855      30070.215      0.99484732    -8141.3275    
    718400   307.05675      143.96387      30070.215      0.99484732    -8152.9324    
    718500   302.29331      193.60664      30070.215      0.99484732    -8207.6832    
    718600   307.03532      96.75946       30070.215      0.99484732    -8252.0588    
    718700   290.49512      78.034102      30070.215      0.99484732    -8302.6671    
    718800   299.1894      -181.31747      30070.215      0.99484732    -8328.8302    
    718900   298.05595      66.550666      30070.215      0.99484732    -8346.6206    
    719000   298.11146     -172.85431      30070.215      0.99484732    -8320.1128    
    719100   304.58385      434.8135       30070.215      0.99484732    -8240.4395    
    719200   308.03551      155.3955       30070.215      0.99484732    -8226.6031    
    719300   305.77198     -322.27898      30070.215      0.99484732    -8271.3944    
    719400   297.11516      340.04009      30070.215      0.99484732    -8325.4577    
    719500   303.58105     -815.78675      30070.215      0.99484732    -8317.0315    
    719600   289.25854      267.73023      30070.215      0.99484732    -8298.0813    
    719700   295.32204      69.025196      30070.215      0.99484732    -8251.4478    
    719800   300.9509      -248.09929      30070.215      0.99484732    -8225.2517    
    719900   304.70406     -517.14317      30070.215      0.99484732    -8204.1241    
    720000   298.41846     -30.208972      30070.215      0.99484732    -8193.9802    
    720100   303.41896     -512.13828      30070.215      0.99484732    -8227.5341    
    720200   287.57945      210.96717      30070.215      0.99484732    -8319.1107    
    720300   292.9402      -304.51131      30070.215      0.99484732    -8298.3823    
    720400   302.6414      -62.639205      30070.215      0.99484732    -8249.9285    
    720500   300.28112      6.8095749      30070.215      0.99484732    -8224.8147    
    720600   304.05254     -28.170865      30070.215      0.99484732    -8247.218     
    720700   291.56828     -492.77186      30070.215      0.99484732    -8349.5489    
    720800   286.2634       265.15395      30070.215      0.99484732    -8352.8893    
    720900   299.57942      488.39944      30070.215      0.99484732    -8319.1195    
    721000   307.66923      68.977269      30070.215      0.99484732    -8276.393     
    721100   301.61799      413.1588       30070.215      0.99484732    -8228.4287    
    721200   294.1307       214.41499      30070.215      0.99484732    -8229.3563    
    721300   293.2664       14.131446      30070.215      0.99484732    -8316.2636    
    721400   293.46183     -671.26221      30070.215      0.99484732    -8316.1716    
    721500   298.72902     -51.956076      30070.215      0.99484732    -8249.7306    
    721600   304.52829     -340.49351      30070.215      0.99484732    -8219.7942    
    721700   305.33385     -266.98529      30070.215      0.99484732    -8179.9024    
    721800   303.52567     -269.74241      30070.215      0.99484732    -8168.808     
    721900   299.41808     -106.67757      30070.215      0.99484732    -8167.863     
    722000   300.03711      240.18926      30070.215      0.99484732    -8220.2859    
    722100   299.14811     -303.05562      30070.215      0.99484732    -8292.0591    
    722200   298.96752     -145.60102      30070.215      0.99484732    -8298.9594    
    722300   289.97554      143.28139      30070.215      0.99484732    -8279.8661    
    722400   305.43812     -292.13129      30070.215      0.99484732    -8226.8113    
    722500   308.51518     -101.91048      30070.215      0.99484732    -8202.1553    
    722600   303.16723     -223.54364      30070.215      0.99484732    -8272.6175    
    722700   290.96163      118.11085      30070.215      0.99484732    -8326.3936    
    722800   299.04546     -81.679956      30070.215      0.99484732    -8297.7671    
    722900   301.02739      56.263824      30070.215      0.99484732    -8255.1822    
    723000   301.87222      202.3384       30070.215      0.99484732    -8211.8488    
    723100   308.71959     -40.901664      30070.215      0.99484732    -8205.9558    
    723200   292.12504     -186.33363      30070.215      0.99484732    -8308.4876    
    723300   300.34745     -304.65368      30070.215      0.99484732    -8303.0922    
    723400   298.90733     -646.667        30070.215      0.99484732    -8252.2504    
    723500   305.20062      37.908357      30070.215      0.99484732    -8195.2439    
    723600   303.6431       180.21915      30070.215      0.99484732    -8205.7814    
    723700   292.8002       123.00038      30070.215      0.99484732    -8246.0225    
    723800   294.6924      -586.32725      30070.215      0.99484732    -8301.0857    
    723900   289.82633     -480.74604      30070.215      0.99484732    -8348.8966    
    724000   297.44296     -185.43007      30070.215      0.99484732    -8288.9901    
    724100   311.00084     -88.759428      30070.215      0.99484732    -8240.289     
    724200   293.33158      349.63483      30070.215      0.99484732    -8274.8006    
    724300   303.62546     -274.46758      30070.215      0.99484732    -8297.2173    
    724400   290.88821     -157.88395      30070.215      0.99484732    -8305.831     
    724500   298.25066      13.540237      30070.215      0.99484732    -8277.8747    
    724600   298.18969     -417.22736      30070.215      0.99484732    -8215.5633    
    724700   306.0685       168.66182      30070.215      0.99484732    -8165.8418    
    724800   308.01332     -44.20611       30070.215      0.99484732    -8178.4218    
    724900   298.26622     -221.08369      30070.215      0.99484732    -8258.6497    
    725000   290.9432       44.512857      30070.215      0.99484732    -8266.2346    
    725100   300.93749      616.85871      30070.215      0.99484732    -8237.0571    
    725200   294.19201      260.99426      30070.215      0.99484732    -8228.858     
    725300   292.27944     -253.28832      30070.215      0.99484732    -8269.2962    
    725400   292.44597     -274.14092      30070.215      0.99484732    -8330.4908    
    725500   290.52207      367.55955      30070.215      0.99484732    -8348.5998    
    725600   303.50263      115.88289      30070.215      0.99484732    -8282.4528    
    725700   301.52909      671.7          30070.215      0.99484732    -8216.8995    
    725800   301.89184     -241.77506      30070.215      0.99484732    -8216.0549    
    725900   296.66591     -101.55609      30070.215      0.99484732    -8226.1624    
    726000   295.12179     -203.41173      30070.215      0.99484732    -8280.1288    
    726100   293.72726     -285.36658      30070.215      0.99484732    -8319.4726    
    726200   293.60478     -63.170532      30070.215      0.99484732    -8294.9653    
    726300   301.23403      77.359068      30070.215      0.99484732    -8204.0755    
    726400   295.06579      154.91734      30070.215      0.99484732    -8180.4134    
    726500   298.47872      46.35397       30070.215      0.99484732    -8203.0509    
    726600   301.18106      37.502529      30070.215      0.99484732    -8273.021     
    726700   302.90301     -19.935241      30070.215      0.99484732    -8321.5486    
    726800   290.92393      139.78887      30070.215      0.99484732    -8319.0223    
    726900   297.49447     -491.95752      30070.215      0.99484732    -8269.6839    
    727000   300.07992     -72.605165      30070.215      0.99484732    -8230.4389    
    727100   297.7289       518.37641      30070.215      0.99484732    -8237.5049    
    727200   306.03333     -439.17962      30070.215      0.99484732    -8253.0758    
    727300   295.57014     -439.05484      30070.215      0.99484732    -8269.2356    
    727400   309.83818     -610.24857      30070.215      0.99484732    -8262.8288    
    727500   305.06478     -637.24456      30070.215      0.99484732    -8253.7823    
    727600   297.48839     -175.94727      30070.215      0.99484732    -8306.3649    
    727700   298.68553     -511.7148       30070.215      0.99484732    -8359.1211    
    727800   289.29335     -117.35711      30070.215      0.99484732    -8350.7317    
    727900   299.87655     -108.41166      30070.215      0.99484732    -8302.3051    
    728000   301.34155      14.836722      30070.215      0.99484732    -8261.3678    
    728100   299.30932     -296.34172      30070.215      0.99484732    -8267.1155    
    728200   299.42141     -123.95828      30070.215      0.99484732    -8274.2764    
    728300   290.06897     -130.70469      30070.215      0.99484732    -8265.2411    
    728400   306.05836     -10.246297      30070.215      0.99484732    -8188.7995    
    728500   303.06917      205.02572      30070.215      0.99484732    -8175.5506    
    728600   296.18992     -269.97624      30070.215      0.99484732    -8227.0314    
    728700   289.58269     -54.472437      30070.215      0.99484732    -8228.5375    
    728800   303.91398     -193.85151      30070.215      0.99484732    -8205.1298    
    728900   292.83422      405.31943      30070.215      0.99484732    -8201.6502    
    729000   315.43973     -5.1333068      30070.215      0.99484732    -8161.5429    
    729100   310.31502     -166.24498      30070.215      0.99484732    -8148.7715    
    729200   299.52364     -257.99929      30070.215      0.99484732    -8204.6787    
    729300   304.26872     -30.653302      30070.215      0.99484732    -8254.1077    
    729400   297.67286      99.807315      30070.215      0.99484732    -8267.34      
    729500   303.27099     -29.771         30070.215      0.99484732    -8252.0509    
    729600   303.33339      730.64677      30070.215      0.99484732    -8191.9495    
    729700   311.93555      438.73944      30070.215      0.99484732    -8191.1246    
    729800   301.56495     -299.63013      30070.215      0.99484732    -8280.885     
    729900   294.40057     -20.202945      30070.215      0.99484732    -8293.964     
    730000   306.9769      -181.27081      30070.215      0.99484732    -8246.1726    
    730100   302.25238     -416.57183      30070.215      0.99484732    -8208.2997    
    730200   297.43491     -536.15323      30070.215      0.99484732    -8194.8715    
    730300   308.02701      235.64173      30070.215      0.99484732    -8110.3192    
    730400   304.57988      401.66708      30070.215      0.99484732    -8093.8932    
    730500   302.63547      130.00397      30070.215      0.99484732    -8142.0228    
    730600   308.86647     -89.972727      30070.215      0.99484732    -8167.0945    
    730700   294.91889      517.0214       30070.215      0.99484732    -8204.7989    
    730800   307.83435      427.03931      30070.215      0.99484732    -8237.8432    
    730900   294.20946      474.04024      30070.215      0.99484732    -8291.5572    
    731000   290.1373       242.7463       30070.215      0.99484732    -8275.1166    
    731100   304.41874     -115.16197      30070.215      0.99484732    -8251.7003    
    731200   291.83834      183.41544      30070.215      0.99484732    -8228.8845    
    731300   304.13334      167.01597      30070.215      0.99484732    -8173.1243    
    731400   308.20893      573.88162      30070.215      0.99484732    -8138.4355    
    731500   298.06454      729.61364      30070.215      0.99484732    -8179.0727    
    731600   297.68904     -523.15723      30070.215      0.99484732    -8247.0966    
    731700   301.55818      213.1848       30070.215      0.99484732    -8266.3305    
    731800   290.85644     -28.610029      30070.215      0.99484732    -8274.3413    
    731900   305.57596      662.52731      30070.215      0.99484732    -8186.3691    
    732000   305.0874       380.16816      30070.215      0.99484732    -8196.9541    
    732100   297.2765       307.04463      30070.215      0.99484732    -8240.7622    
    732200   299.04315      656.93292      30070.215      0.99484732    -8257.2679    
    732300   298.41845     -243.25401      30070.215      0.99484732    -8290.0349    
    732400   285.9496      -409.67885      30070.215      0.99484732    -8352.5527    
    732500   294.235        63.394683      30070.215      0.99484732    -8284.8545    
    732600   290.15058      596.54128      30070.215      0.99484732    -8235.7348    
    732700   306.01982      449.523        30070.215      0.99484732    -8223.8495    
    732800   302.26081      37.187394      30070.215      0.99484732    -8262.9812    
    732900   296.95751     -606.14715      30070.215      0.99484732    -8303.712     
    733000   308.86919      240.70856      30070.215      0.99484732    -8261.5378    
    733100   308.52282     -51.617671      30070.215      0.99484732    -8205.5573    
    733200   305.42565     -12.481978      30070.215      0.99484732    -8115.2646    
    733300   304.12138      289.5129       30070.215      0.99484732    -8089.2438    
    733400   304.08171     -402.21152      30070.215      0.99484732    -8149.2645    
    733500   300.19481      171.39387      30070.215      0.99484732    -8180.7392    
    733600   297.27723     -248.13964      30070.215      0.99484732    -8194.8738    
    733700   311.66745     -378.65653      30070.215      0.99484732    -8210.3987    
    733800   300.12487      347.00945      30070.215      0.99484732    -8306.627     
    733900   294.89417      418.49696      30070.215      0.99484732    -8319.877     
    734000   290.43582      489.85427      30070.215      0.99484732    -8289.219     
    734100   302.16743     -275.3744       30070.215      0.99484732    -8229.9349    
    734200   303.24336     -317.57043      30070.215      0.99484732    -8211.7802    
    734300   302.05266      249.70889      30070.215      0.99484732    -8214.6443    
    734400   301.79622      180.31727      30070.215      0.99484732    -8238.5469    
    734500   304.67478      561.43306      30070.215      0.99484732    -8262.8198    
    734600   295.312       -460.6849       30070.215      0.99484732    -8305.5752    
    734700   301.52616     -307.45809      30070.215      0.99484732    -8294.608     
    734800   297.61246      257.06333      30070.215      0.99484732    -8268.3578    
    734900   309.09976     -474.93984      30070.215      0.99484732    -8204.3525    
    735000   302.79888     -454.78772      30070.215      0.99484732    -8211.1072    
    735100   299.65416      77.334728      30070.215      0.99484732    -8267.336     
    735200   294.40425     -453.39939      30070.215      0.99484732    -8321.6726    
    735300   305.00958     -179.54289      30070.215      0.99484732    -8317.0806    
    735400   298.2305       77.93983       30070.215      0.99484732    -8297.9097    
    735500   308.09512      238.60613      30070.215      0.99484732    -8243.2393    
    735600   309.72042      54.000348      30070.215      0.99484732    -8159.4222    
    735700   305.47956      234.94587      30070.215      0.99484732    -8192.7986    
    735800   305.96058     -72.474754      30070.215      0.99484732    -8250.8465    
    735900   299.85744      133.12444      30070.215      0.99484732    -8296.2269    
    736000   296.34512      46.967015      30070.215      0.99484732    -8313.5171    
    736100   296.9527       122.59999      30070.215      0.99484732    -8284.557     
    736200   301.17413     -654.48782      30070.215      0.99484732    -8264.6609    
    736300   301.4711      -253.98977      30070.215      0.99484732    -8206.3963    
    736400   305.96682      209.8922       30070.215      0.99484732    -8154.7612    
    736500   300.23064     -245.24261      30070.215      0.99484732    -8189.7672    
    736600   298.88857     -661.44712      30070.215      0.99484732    -8242.3739    
    736700   296.2905      -579.34644      30070.215      0.99484732    -8241.2018    
    736800   302.69078      1415.031       30070.215      0.99484732    -8227.7348    
    736900   299.92935     -190.71957      30070.215      0.99484732    -8277.0995    
    737000   293.55056     -558.77998      30070.215      0.99484732    -8317.7096    
    737100   293.34414      258.4717       30070.215      0.99484732    -8296.7011    
    737200   303.54969      624.98571      30070.215      0.99484732    -8276.3803    
    737300   304.3109       337.54874      30070.215      0.99484732    -8284.6567    
    737400   301.73755     -212.26805      30070.215      0.99484732    -8328.2102    
    737500   287.07178     -192.93042      30070.215      0.99484732    -8353.2259    
    737600   296.86504     -691.36177      30070.215      0.99484732    -8285.6433    
    737700   307.18975     -450.31716      30070.215      0.99484732    -8232.4852    
    737800   298.99253     -189.36879      30070.215      0.99484732    -8226.4768    
    737900   309.01555      46.069964      30070.215      0.99484732    -8212.7898    
    738000   293.19536      154.97142      30070.215      0.99484732    -8243.1713    
    738100   300.84835      114.51221      30070.215      0.99484732    -8303.9365    
    738200   295.53147      318.24518      30070.215      0.99484732    -8339.4621    
    738300   299.80278     -38.140774      30070.215      0.99484732    -8338.2945    
    738400   305.27577     -299.15801      30070.215      0.99484732    -8258.0021    
    738500   292.54077      122.26743      30070.215      0.99484732    -8198.7917    
    738600   305.23825     -481.8018       30070.215      0.99484732    -8177.775     
    738700   300.0387      -298.58197      30070.215      0.99484732    -8212.4453    
    738800   299.06662     -547.55406      30070.215      0.99484732    -8286.0784    
    738900   301.49581     -409.03524      30070.215      0.99484732    -8300.6678    
    739000   299.25888      216.71844      30070.215      0.99484732    -8272.5989    
    739100   302.09191     -238.23074      30070.215      0.99484732    -8251.0939    
    739200   306.4358      -80.694548      30070.215      0.99484732    -8256.6541    
    739300   290.48289     -636.03359      30070.215      0.99484732    -8343.4392    
    739400   293.41341     -279.96928      30070.215      0.99484732    -8330.6734    
    739500   300.81732      120.25327      30070.215      0.99484732    -8271.093     
    739600   303.07061      251.19435      30070.215      0.99484732    -8249.2226    
    739700   304.7606      -214.84824      30070.215      0.99484732    -8251.3115    
    739800   304.80998      256.53387      30070.215      0.99484732    -8263.628     
    739900   296.65385     -149.27075      30070.215      0.99484732    -8307.7058    
    740000   300.16648     -163.24889      30070.215      0.99484732    -8355.931     
    740100   290.98955      138.8259       30070.215      0.99484732    -8383.0883    
    740200   304.10637     -299.29421      30070.215      0.99484732    -8342.4965    
    740300   307.12051      408.86219      30070.215      0.99484732    -8275.5096    
    740400   303.76552     -31.94776       30070.215      0.99484732    -8274.9922    
    740500   296.90475     -100.74928      30070.215      0.99484732    -8269.7594    
    740600   298.6822      -289.93371      30070.215      0.99484732    -8242.9894    
    740700   305.7735      -364.2927       30070.215      0.99484732    -8179.4107    
    740800   299.12397     -157.89829      30070.215      0.99484732    -8169.5967    
    740900   294.05857      83.928945      30070.215      0.99484732    -8174.1037    
    741000   301.83409      102.93141      30070.215      0.99484732    -8192.7523    
    741100   300.75287     -537.89026      30070.215      0.99484732    -8269.5306    
    741200   294.67454      99.554118      30070.215      0.99484732    -8282.6189    
    741300   299.06196      312.48095      30070.215      0.99484732    -8259.97      
    741400   301.96522      167.46419      30070.215      0.99484732    -8223.767     
    741500   306.16346      326.9972       30070.215      0.99484732    -8164.9486    
    741600   297.0514       136.59999      30070.215      0.99484732    -8165.8705    
    741700   293.54638     -433.98717      30070.215      0.99484732    -8222.9993    
    741800   295.08671     -13.070441      30070.215      0.99484732    -8226.4897    
    741900   308.86204     -278.20729      30070.215      0.99484732    -8172.2757    
    742000   301.31901     -130.66802      30070.215      0.99484732    -8114.1221    
    742100   305.06051      373.24086      30070.215      0.99484732    -8154.7426    
    742200   301.76199     -713.82798      30070.215      0.99484732    -8230.6699    
    742300   300.16729     -527.40822      30070.215      0.99484732    -8259.0503    
    742400   300.95039     -234.61061      30070.215      0.99484732    -8278.268     
    742500   293.74643     -333.87164      30070.215      0.99484732    -8292.4412    
    742600   308.92859     -230.32846      30070.215      0.99484732    -8248.8405    
    742700   299.01243      216.97847      30070.215      0.99484732    -8224.4846    
    742800   297.26085     -484.67159      30070.215      0.99484732    -8267.6503    
    742900   299.50775     -215.94124      30070.215      0.99484732    -8336.7179    
    743000   290.4157      -114.81639      30070.215      0.99484732    -8348.8271    
    743100   299.79119     -580.47294      30070.215      0.99484732    -8315.456     
    743200   295.91027      183.9094       30070.215      0.99484732    -8287.4098    
    743300   304.79296      144.85508      30070.215      0.99484732    -8261.4666    
    743400   300.8046      -367.39246      30070.215      0.99484732    -8258.5967    
    743500   307.97905      181.3385       30070.215      0.99484732    -8209.6237    
    743600   307.54926      785.42331      30070.215      0.99484732    -8152.3531    
    743700   300.85457      78.026043      30070.215      0.99484732    -8200.3046    
    743800   299.89409     -611.39822      30070.215      0.99484732    -8247.3685    
    743900   303.00344     -592.61438      30070.215      0.99484732    -8240.0541    
    744000   301.53877      123.53827      30070.215      0.99484732    -8195.6882    
    744100   311.5871      -124.42589      30070.215      0.99484732    -8158.6194    
    744200   305.49712      325.38099      30070.215      0.99484732    -8202.7401    
    744300   301.04569     -599.04577      30070.215      0.99484732    -8229.8154    
    744400   297.95153     -441.69085      30070.215      0.99484732    -8197.7852    
    744500   309.97765     -674.46384      30070.215      0.99484732    -8162.1668    
    744600   304.13076     -547.02673      30070.215      0.99484732    -8200.7404    
    744700   298.37851     -513.57006      30070.215      0.99484732    -8238.5281    
    744800   300.8172       96.760927      30070.215      0.99484732    -8206.1001    
    744900   302.22691     -170.97794      30070.215      0.99484732    -8115.1971    
    745000   308.17059     -254.41915      30070.215      0.99484732    -8125.4037    
    745100   300.72261     -412.66884      30070.215      0.99484732    -8190.2007    
    745200   303.57095     -673.13823      30070.215      0.99484732    -8206.265     
    745300   308.26967      142.45676      30070.215      0.99484732    -8195.1339    
    745400   295.79657      170.27885      30070.215      0.99484732    -8216.879     
    745500   286.10326     -124.97069      30070.215      0.99484732    -8313.8162    
    745600   286.47498     -882.02578      30070.215      0.99484732    -8318.2449    
    745700   296.42467     -488.29422      30070.215      0.99484732    -8270.5563    
    745800   307.34741      33.794189      30070.215      0.99484732    -8227.9122    
    745900   300.95129      740.91324      30070.215      0.99484732    -8233.202     
    746000   289.56761     -67.395304      30070.215      0.99484732    -8277.2021    
    746100   293.65377     -116.27785      30070.215      0.99484732    -8320.1708    
    746200   290.38097      1214.1246      30070.215      0.99484732    -8289.0212    
    746300   301.90988      274.65024      30070.215      0.99484732    -8220.0421    
    746400   302.47986     -486.44907      30070.215      0.99484732    -8201.7917    
    746500   294.72596      454.1014       30070.215      0.99484732    -8189.1344    
    746600   303.24923      16.441763      30070.215      0.99484732    -8181.7703    
    746700   305.51009     -519.85686      30070.215      0.99484732    -8204.5595    
    746800   296.00283     -687.38517      30070.215      0.99484732    -8252.6305    
    746900   295.90716     -538.04987      30070.215      0.99484732    -8246.8729    
    747000   301.22873      327.41628      30070.215      0.99484732    -8168.156     
    747100   302.31158     -326.25895      30070.215      0.99484732    -8150.9333    
    747200   309.65799     -130.14766      30070.215      0.99484732    -8187.2612    
    747300   295.11401     -189.11577      30070.215      0.99484732    -8232.4835    
    747400   297.81532     -204.23476      30070.215      0.99484732    -8224.2696    
    747500   300.07019     -82.102125      30070.215      0.99484732    -8219.2364    
    747600   294.18976     -204.20044      30070.215      0.99484732    -8243.0032    
    747700   289.21212      108.21839      30070.215      0.99484732    -8315.4984    
    747800   300.1781       179.65189      30070.215      0.99484732    -8294.6155    
    747900   306.73319      325.31575      30070.215      0.99484732    -8240.59      
    748000   298.88906      313.13227      30070.215      0.99484732    -8224.261     
    748100   301.15846      303.06949      30070.215      0.99484732    -8206.9491    
    748200   299.38133      77.976086      30070.215      0.99484732    -8201.1238    
    748300   294.12709      112.92139      30070.215      0.99484732    -8227.9613    
    748400   297.16212     -189.26896      30070.215      0.99484732    -8261.6219    
    748500   300.20251     -360.13123      30070.215      0.99484732    -8300.7517    
    748600   282.13437     -648.07011      30070.215      0.99484732    -8322.1671    
    748700   303.14312     -28.895717      30070.215      0.99484732    -8224.7299    
    748800   296.51597     -136.83581      30070.215      0.99484732    -8210.8494    
    748900   297.34921     -376.63029      30070.215      0.99484732    -8200.0741    
    749000   306.98297     -192.2271       30070.215      0.99484732    -8186.6379    
    749100   298.68914     -182.66552      30070.215      0.99484732    -8247.5851    
    749200   299.03445     -45.657209      30070.215      0.99484732    -8289.2791    
    749300   293.52383     -120.35908      30070.215      0.99484732    -8263.1628    
    749400   304.21251     -53.997566      30070.215      0.99484732    -8216.8617    
    749500   299.8756      -161.9549       30070.215      0.99484732    -8225.2619    
    749600   304.17879     -367.37988      30070.215      0.99484732    -8255.3073    
    749700   297.4868      -615.97554      30070.215      0.99484732    -8292.7007    
    749800   293.28378     -18.854501      30070.215      0.99484732    -8319.2022    
    749900   298.78527     -507.00421      30070.215      0.99484732    -8288.3395    
    750000   303.01068     -624.49361      30070.215      0.99484732    -8218.4656    
    750100   303.3707      -444.41432      30070.215      0.99484732    -8181.9092    
    750200   314.434        2.9133228      30070.215      0.99484732    -8159.5311    
    750300   300.36376      119.32167      30070.215      0.99484732    -8228.2502    
    750400   292.654       -225.08996      30070.215      0.99484732    -8294.5138    
    750500   299.407       -66.694698      30070.215      0.99484732    -8287.6982    
    750600   297.39929      442.95291      30070.215      0.99484732    -8245.4904    
    750700   300.0529       369.49412      30070.215      0.99484732    -8196.424     
    750800   312.92176      350.32697      30070.215      0.99484732    -8161.6146    
    750900   301.91605      48.51691       30070.215      0.99484732    -8238.3005    
    751000   299.23868      33.554157      30070.215      0.99484732    -8300.1862    
    751100   301.35535     -211.89317      30070.215      0.99484732    -8314.9244    
    751200   296.03653      186.62546      30070.215      0.99484732    -8307.2025    
    751300   300.41705     -344.48417      30070.215      0.99484732    -8265.3162    
    751400   304.62268      32.841139      30070.215      0.99484732    -8192.6946    
    751500   303.27666      631.54816      30070.215      0.99484732    -8197.3702    
    751600   298.04733      100.14618      30070.215      0.99484732    -8241.4343    
    751700   298.84637      179.68609      30070.215      0.99484732    -8254.2689    
    751800   297.76789     -22.559425      30070.215      0.99484732    -8240.3508    
    751900   308.6081       682.29994      30070.215      0.99484732    -8194.3612    
    752000   305.13315      336.32731      30070.215      0.99484732    -8111.4492    
    752100   310.84345     -160.43517      30070.215      0.99484732    -8098.6874    
    752200   303.83266      259.89786      30070.215      0.99484732    -8151.4857    
    752300   300.0841       474.85629      30070.215      0.99484732    -8203.1479    
    752400   302.92006     -91.288091      30070.215      0.99484732    -8224.3727    
    752500   289.46145     -450.2767       30070.215      0.99484732    -8254.5694    
    752600   301.63644     -117.91346      30070.215      0.99484732    -8224.9225    
    752700   304.55109     -82.211048      30070.215      0.99484732    -8162.5312    
    752800   301.79073      8.3028087      30070.215      0.99484732    -8123.2111    
    752900   301.76468      252.04897      30070.215      0.99484732    -8163.754     
    753000   297.55363     -733.67777      30070.215      0.99484732    -8246.0443    
    753100   296.06952      113.34307      30070.215      0.99484732    -8262.6793    
    753200   298.99912     -33.267819      30070.215      0.99484732    -8268.7294    
    753300   293.01244     -432.87535      30070.215      0.99484732    -8254.3219    
    753400   309.58137     -393.99233      30070.215      0.99484732    -8182.3305    
    753500   295.34672      508.58343      30070.215      0.99484732    -8172.4074    
    753600   298.09451      135.68488      30070.215      0.99484732    -8214.0452    
    753700   292.32169      245.07043      30070.215      0.99484732    -8279.2936    
    753800   294.54462      487.87018      30070.215      0.99484732    -8262.0951    
    753900   307.06932      339.26716      30070.215      0.99484732    -8233.7907    
    754000   300.21666      450.11288      30070.215      0.99484732    -8206.8255    
    754100   297.11303      9.0011785      30070.215      0.99484732    -8165.6433    
    754200   307.69389     -135.47765      30070.215      0.99484732    -8120.0893    
    754300   312.91647      660.56044      30070.215      0.99484732    -8079.8011    
    754400   304.8803      -300.14231      30070.215      0.99484732    -8175.4821    
    754500   305.42994      440.91638      30070.215      0.99484732    -8213.1624    
    754600   295.48323     -397.88531      30070.215      0.99484732    -8234.9985    
    754700   300.4658      -288.61259      30070.215      0.99484732    -8222.4413    
    754800   304.58031      350.47205      30070.215      0.99484732    -8205.5697    
    754900   302.19401      472.92151      30070.215      0.99484732    -8218.3574    
    755000   294.75458      307.50613      30070.215      0.99484732    -8297.355     
    755100   297.71516     -137.17699      30070.215      0.99484732    -8337.6388    
    755200   301.22102     -329.95451      30070.215      0.99484732    -8357.7641    
    755300   303.81806     -262.94652      30070.215      0.99484732    -8391.4894    
    755400   289.75465     -85.0859        30070.215      0.99484732    -8427.771     
    755500   297.85583     -435.01342      30070.215      0.99484732    -8402.2239    
    755600   302.45509     -330.41801      30070.215      0.99484732    -8324.9131    
    755700   296.05299      140.35267      30070.215      0.99484732    -8301.7365    
    755800   298.5214      -474.31163      30070.215      0.99484732    -8282.74      
    755900   308.12826     -154.38111      30070.215      0.99484732    -8215.0212    
    756000   311.93774     -26.736839      30070.215      0.99484732    -8189.931     
    756100   301.80176      256.18616      30070.215      0.99484732    -8229.7007    
    756200   297.39715      77.864334      30070.215      0.99484732    -8246.8401    
    756300   299.60986     -387.99069      30070.215      0.99484732    -8253.2315    
    756400   304.0752      -167.3846       30070.215      0.99484732    -8271.6326    
    756500   296.29949      511.78784      30070.215      0.99484732    -8322.3221    
    756600   295.80014      231.15312      30070.215      0.99484732    -8349.2764    
    756700   298.84195      10.980908      30070.215      0.99484732    -8310.7377    
    756800   305.4632       14.546411      30070.215      0.99484732    -8227.1359    
    756900   304.72048     -140.26771      30070.215      0.99484732    -8221.3637    
    757000   308.7124      -17.456214      30070.215      0.99484732    -8246.0149    
    757100   292.036       -152.16836      30070.215      0.99484732    -8314.7143    
    757200   292.28458     -170.96183      30070.215      0.99484732    -8320.1823    
    757300   311.02291      318.84152      30070.215      0.99484732    -8219.6455    
    757400   296.09541     -1.657817       30070.215      0.99484732    -8208.1052    
    757500   299.09056     -2.1244054      30070.215      0.99484732    -8226.8388    
    757600   296.64398     -156.2743       30070.215      0.99484732    -8254.0392    
    757700   293.11857      43.682276      30070.215      0.99484732    -8311.5498    
    757800   299.63713      171.1678       30070.215      0.99484732    -8337.0174    
    757900   298.47685      169.55278      30070.215      0.99484732    -8259.0794    
    758000   307.66961      252.46182      30070.215      0.99484732    -8213.1738    
    758100   306.36933     -546.44658      30070.215      0.99484732    -8237.5934    
    758200   292.54991     -295.81085      30070.215      0.99484732    -8278.7813    
    758300   297.57071     -52.634582      30070.215      0.99484732    -8266.8482    
    758400   306.99654      493.22033      30070.215      0.99484732    -8183.5141    
    758500   305.40148      666.58652      30070.215      0.99484732    -8173.6968    
    758600   305.30662     -20.389358      30070.215      0.99484732    -8235.1881    
    758700   290.90035     -195.00196      30070.215      0.99484732    -8275.6671    
    758800   296.01912      192.52393      30070.215      0.99484732    -8271.4962    
    758900   300.7374       237.81853      30070.215      0.99484732    -8254.7479    
    759000   296.49966      376.02071      30070.215      0.99484732    -8276.6508    
    759100   288.31672     -137.91448      30070.215      0.99484732    -8338.3804    
    759200   296.02093      106.88603      30070.215      0.99484732    -8300.6806    
    759300   298.96572     -28.903422      30070.215      0.99484732    -8238.7821    
    759400   300.32428     -361.04378      30070.215      0.99484732    -8215.9385    
    759500   305.58136     -91.750197      30070.215      0.99484732    -8194.5377    
    759600   307.54717      569.64932      30070.215      0.99484732    -8228.6696    
    759700   293.05724      540.12104      30070.215      0.99484732    -8296.5795    
    759800   282.57836     -353.98771      30070.215      0.99484732    -8357.6261    
    759900   292.23665     -39.316611      30070.215      0.99484732    -8337.6659    
    760000   301.73561      896.03789      30070.215      0.99484732    -8248.2336    
    760100   300.92315     -470.58087      30070.215      0.99484732    -8216.3467    
    760200   302.60491     -337.0155       30070.215      0.99484732    -8171.2676    
    760300   303.72905     -75.952732      30070.215      0.99484732    -8144.4358    
    760400   305.11609      183.02758      30070.215      0.99484732    -8131.9792    
    760500   313.02527     -432.5004       30070.215      0.99484732    -8103.2328    
    760600   306.46121     -820.03678      30070.215      0.99484732    -8151.7634    
    760700   301.01851     -151.1841       30070.215      0.99484732    -8217.6684    
    760800   301.76022     -128.98576      30070.215      0.99484732    -8263.2539    
    760900   296.31651     -176.83017      30070.215      0.99484732    -8282.3012    
    761000   293.51699     -38.889288      30070.215      0.99484732    -8246.9238    
    761100   309.60461      200.70187      30070.215      0.99484732    -8180.9086    
    761200   302.23012      327.6117       30070.215      0.99484732    -8210.0098    
    761300   299.78606      26.483181      30070.215      0.99484732    -8245.9544    
    761400   306.7962       647.39764      30070.215      0.99484732    -8245.3168    
    761500   293.01477      443.43562      30070.215      0.99484732    -8285.2013    
    761600   292.10869      293.50563      30070.215      0.99484732    -8336.881     
    761700   295.00154     -341.07988      30070.215      0.99484732    -8347.7028    
    761800   302.49072      178.05274      30070.215      0.99484732    -8253.4475    
    761900   302.75232      410.72925      30070.215      0.99484732    -8222.5278    
    762000   304.96055     -185.8391       30070.215      0.99484732    -8209.6899    
    762100   304.95839     -93.38854       30070.215      0.99484732    -8203.3162    
    762200   299.52542      545.51631      30070.215      0.99484732    -8246.8074    
    762300   296.95414     -426.2532       30070.215      0.99484732    -8309.2462    
    762400   292.51407     -475.66198      30070.215      0.99484732    -8311.577     
    762500   303.53174     -108.46305      30070.215      0.99484732    -8272.2413    
    762600   308.75837      271.20183      30070.215      0.99484732    -8215.207     
    762700   289.01664     -220.15208      30070.215      0.99484732    -8287.6764    
    762800   300.26868     -19.638922      30070.215      0.99484732    -8314.1158    
    762900   299.8954      -272.78166      30070.215      0.99484732    -8292.2499    
    763000   292.99         233.2831       30070.215      0.99484732    -8263.8639    
    763100   293.79836      629.43768      30070.215      0.99484732    -8236.1706    
    763200   308.30461     -184.99825      30070.215      0.99484732    -8147.9184    
    763300   312.72507     -249.05159      30070.215      0.99484732    -8142.4825    
    763400   295.91151     -296.52443      30070.215      0.99484732    -8202.7891    
    763500   302.37636      203.20846      30070.215      0.99484732    -8217.0402    
    763600   294.52238      423.45908      30070.215      0.99484732    -8257.2256    
    763700   292.31338      422.05147      30070.215      0.99484732    -8273.3941    
    763800   307.80012      714.74665      30070.215      0.99484732    -8222.5205    
    763900   310.90067      65.661082      30070.215      0.99484732    -8193.9755    
    764000   300.92756      118.55264      30070.215      0.99484732    -8262.0798    
    764100   298.80656      373.77457      30070.215      0.99484732    -8289.9819    
    764200   295.67834     -294.31907      30070.215      0.99484732    -8286.3461    
    764300   305.36376      569.3689       30070.215      0.99484732    -8252.3844    
    764400   304.55442      141.6309       30070.215      0.99484732    -8230.9143    
    764500   294.62889      423.86904      30070.215      0.99484732    -8252.5606    
    764600   296.75602     -799.96097      30070.215      0.99484732    -8277.5718    
    764700   293.84919     -387.7348       30070.215      0.99484732    -8293.0039    
    764800   296.72547      142.91915      30070.215      0.99484732    -8274.2265    
    764900   306.78464      181.92564      30070.215      0.99484732    -8207.8948    
    765000   315.27752     -263.90929      30070.215      0.99484732    -8188.0178    
    765100   294.43146     -541.19411      30070.215      0.99484732    -8238.4983    
    765200   297.01208     -187.26241      30070.215      0.99484732    -8299.6446    
    765300   290.61437     -213.53114      30070.215      0.99484732    -8356.9477    
    765400   289.44975     -567.6553       30070.215      0.99484732    -8409.2718    
    765500   299.37101     -108.49359      30070.215      0.99484732    -8343.6078    
    765600   300.77626      113.11388      30070.215      0.99484732    -8296.3836    
    765700   301.33124      131.18481      30070.215      0.99484732    -8296.9538    
    765800   302.01383      413.87039      30070.215      0.99484732    -8325.423     
    765900   285.83722      611.61302      30070.215      0.99484732    -8401.09      
    766000   294.18294     -643.43752      30070.215      0.99484732    -8410.6567    
    766100   301.86146     -604.46739      30070.215      0.99484732    -8381.7258    
    766200   292.57032     -218.83981      30070.215      0.99484732    -8361.716     
    766300   305.16427     -279.80286      30070.215      0.99484732    -8311.5299    
    766400   304.02653      503.93477      30070.215      0.99484732    -8284.6791    
    766500   298.26649      13.686382      30070.215      0.99484732    -8285.902     
    766600   307.36455      165.49282      30070.215      0.99484732    -8273.4409    
    766700   306.34376      568.67806      30070.215      0.99484732    -8270.7323    
    766800   292.24729     -240.53493      30070.215      0.99484732    -8296.1636    
    766900   306.80007      112.36448      30070.215      0.99484732    -8259.9295    
    767000   309.10473     -240.89761      30070.215      0.99484732    -8213.6288    
    767100   302.38907     -666.76373      30070.215      0.99484732    -8201.8252    
    767200   309.02471      251.99595      30070.215      0.99484732    -8139.6327    
    767300   303.34067      196.785        30070.215      0.99484732    -8131.4467    
    767400   302.38322     -26.077205      30070.215      0.99484732    -8193.5606    
    767500   292.82299      583.21886      30070.215      0.99484732    -8260.8109    
    767600   301.03331     -76.52519       30070.215      0.99484732    -8257.7836    
    767700   302.06639      524.72884      30070.215      0.99484732    -8246.3613    
    767800   298.56495     -189.7726       30070.215      0.99484732    -8228.2894    
    767900   302.36014      164.54671      30070.215      0.99484732    -8139.3977    
    768000   306.91189      603.05728      30070.215      0.99484732    -8165.3157    
    768100   303.57443      59.74612       30070.215      0.99484732    -8226.0334    
    768200   298.96908     -13.137122      30070.215      0.99484732    -8238.8777    
    768300   301.60182     -264.13251      30070.215      0.99484732    -8238.3582    
    768400   296.15223      424.28191      30070.215      0.99484732    -8265.3941    
    768500   290.67747      64.870981      30070.215      0.99484732    -8318.708     
    768600   305.82581      196.12504      30070.215      0.99484732    -8305.3146    
    768700   297.69516     -1.8597111      30070.215      0.99484732    -8238.204     
    768800   303.21175      626.94703      30070.215      0.99484732    -8190.7983    
    768900   296.39754     -596.9686       30070.215      0.99484732    -8213.0726    
    769000   301.89394     -622.27044      30070.215      0.99484732    -8230.1549    
    769100   300.4963      -95.563795      30070.215      0.99484732    -8198.258     
    769200   313.90099      623.22128      30070.215      0.99484732    -8114.3484    
    769300   313.1709      -212.31735      30070.215      0.99484732    -8137.1819    
    769400   299.91923     -110.65808      30070.215      0.99484732    -8204.5197    
    769500   302.15426      77.050115      30070.215      0.99484732    -8226.9834    
    769600   295.1686      -23.022968      30070.215      0.99484732    -8258.5806    
    769700   287.43515     -60.490466      30070.215      0.99484732    -8277.165     
    769800   311.0391      -376.79959      30070.215      0.99484732    -8217.8409    
    769900   310.69312     -153.81551      30070.215      0.99484732    -8172.3858    
    770000   297.92268     -366.17742      30070.215      0.99484732    -8206.7892    
    770100   295.45198     -35.290698      30070.215      0.99484732    -8254.8486    
    770200   297.08911     -348.35831      30070.215      0.99484732    -8288.8242    
    770300   295.19895     -9.9710323      30070.215      0.99484732    -8326.6721    
    770400   299.96584      173.22228      30070.215      0.99484732    -8317.812     
    770500   303.74006      153.94892      30070.215      0.99484732    -8261.6595    
    770600   305.69595     -314.18377      30070.215      0.99484732    -8234.621     
    770700   301.90292      521.28097      30070.215      0.99484732    -8225.4539    
    770800   303.21393      2.2379807      30070.215      0.99484732    -8299.8035    
    770900   296.48536      184.42451      30070.215      0.99484732    -8338.9271    
    771000   300.96871      497.84528      30070.215      0.99484732    -8324.0822    
    771100   298.43491      2.5495613      30070.215      0.99484732    -8299.5507    
    771200   297.38717      694.42316      30070.215      0.99484732    -8227.6687    
    771300   311.13603      237.54739      30070.215      0.99484732    -8195.9846    
    771400   304.60828     -73.785873      30070.215      0.99484732    -8231.6494    
    771500   305.06568      358.72102      30070.215      0.99484732    -8238.7922    
    771600   301.20235      169.69499      30070.215      0.99484732    -8265.5346    
    771700   295.18706     -396.87535      30070.215      0.99484732    -8353.4579    
    771800   298.67926      573.71436      30070.215      0.99484732    -8344.4804    
    771900   300.74383     -188.76892      30070.215      0.99484732    -8278.7735    
    772000   305.93026      19.747641      30070.215      0.99484732    -8241.0789    
    772100   291.15131      480.64585      30070.215      0.99484732    -8254.7712    
    772200   298.23808      124.72373      30070.215      0.99484732    -8238.5747    
    772300   306.46447      361.67937      30070.215      0.99484732    -8152.7566    
    772400   298.87963      581.32499      30070.215      0.99484732    -8146.0818    
    772500   300.36918      291.02968      30070.215      0.99484732    -8183.7193    
    772600   299.36677     -378.55639      30070.215      0.99484732    -8208.0161    
    772700   300.96556      129.42397      30070.215      0.99484732    -8214.201     
    772800   300.96492     -147.75139      30070.215      0.99484732    -8219.4049    
    772900   304.1168      -238.57734      30070.215      0.99484732    -8219.2591    
    773000   291.05863      468.67405      30070.215      0.99484732    -8279.589     
    773100   294.61251      99.353047      30070.215      0.99484732    -8332.8083    
    773200   291.71091      212.72109      30070.215      0.99484732    -8320.1892    
    773300   301.44204     -770.12777      30070.215      0.99484732    -8276.0296    
    773400   300.82362     -186.46069      30070.215      0.99484732    -8267.5091    
    773500   300.83512      103.65456      30070.215      0.99484732    -8269.961     
    773600   297.06173      156.88292      30070.215      0.99484732    -8292.0943    
    773700   290.3423       297.53697      30070.215      0.99484732    -8359.5226    
    773800   292.83132     -205.31718      30070.215      0.99484732    -8361.1571    
    773900   301.97621      560.83854      30070.215      0.99484732    -8290.3006    
    774000   300.37515      93.278483      30070.215      0.99484732    -8264.6885    
    774100   299.89434      412.94228      30070.215      0.99484732    -8267.3902    
    774200   307.27387      9.398799       30070.215      0.99484732    -8310.9109    
    774300   290.65788     -186.88226      30070.215      0.99484732    -8401.4144    
    774400   297.55171      361.10942      30070.215      0.99484732    -8389.7817    
    774500   291.47815      555.72506      30070.215      0.99484732    -8355.546     
    774600   297.66939      20.291328      30070.215      0.99484732    -8299.5284    
    774700   302.03451      4.2752912      30070.215      0.99484732    -8261.2089    
    774800   307.52456      478.47811      30070.215      0.99484732    -8258.9741    
    774900   296.92966      494.26701      30070.215      0.99484732    -8278.7611    
    775000   294.22265      224.76082      30070.215      0.99484732    -8272.6136    
    775100   300.19602      304.48842      30070.215      0.99484732    -8251.4582    
    775200   291.48118     -179.98772      30070.215      0.99484732    -8249.5714    
    775300   302.82047      258.52063      30070.215      0.99484732    -8184.9164    
    775400   314.65456      333.56711      30070.215      0.99484732    -8128.3255    
    775500   306.65185     -332.40389      30070.215      0.99484732    -8184.0691    
    775600   304.00895      286.6941       30070.215      0.99484732    -8235.4524    
    775700   294.07829     -299.0407       30070.215      0.99484732    -8273.7059    
    775800   295.21786     -313.91924      30070.215      0.99484732    -8268.1854    
    775900   305.02329     -550.87265      30070.215      0.99484732    -8198.2061    
    776000   305.50348      467.85824      30070.215      0.99484732    -8163.2621    
    776100   297.49515     -169.21371      30070.215      0.99484732    -8249.7289    
    776200   291.76662      22.140569      30070.215      0.99484732    -8297.7618    
    776300   292.69519     -63.41287       30070.215      0.99484732    -8252.4712    
    776400   300.61882      361.85715      30070.215      0.99484732    -8194.1332    
    776500   302.77689     -215.91048      30070.215      0.99484732    -8171.3863    
    776600   301.19846      301.4348       30070.215      0.99484732    -8157.0307    
    776700   300.50935      184.31821      30070.215      0.99484732    -8096.2389    
    776800   306.97865      24.807752      30070.215      0.99484732    -8067.6277    
    776900   301.49912     -906.40407      30070.215      0.99484732    -8132.0377    
    777000   296.21797      771.70836      30070.215      0.99484732    -8154.5252    
    777100   299.85754     -14.102256      30070.215      0.99484732    -8164.9501    
    777200   302.44339     -382.83125      30070.215      0.99484732    -8186.0764    
    777300   296.8626      -56.362782      30070.215      0.99484732    -8201.0791    
    777400   293.58368     -407.67795      30070.215      0.99484732    -8249.1891    
    777500   289.89358     -582.17839      30070.215      0.99484732    -8324.5603    
    777600   299.80692     -244.06458      30070.215      0.99484732    -8311.9409    
    777700   299.4138       129.13725      30070.215      0.99484732    -8269.5061    
    777800   303.41639      222.93957      30070.215      0.99484732    -8204.5061    
    777900   304.80742      559.36678      30070.215      0.99484732    -8178.2493    
    778000   291.48065     -329.88618      30070.215      0.99484732    -8278.2944    
    778100   298.88687      120.78756      30070.215      0.99484732    -8292.8966    
    778200   296.44101      152.8926       30070.215      0.99484732    -8320.0745    
    778300   297.89515     -600.60638      30070.215      0.99484732    -8347.1139    
    778400   297.24995     -247.97072      30070.215      0.99484732    -8344.7716    
    778500   306.63137      426.77152      30070.215      0.99484732    -8258.644     
    778600   300.37123      283.53079      30070.215      0.99484732    -8246.9827    
    778700   293.19384      99.92949       30070.215      0.99484732    -8278.9688    
    778800   286.85095     -601.07007      30070.215      0.99484732    -8306.9883    
    778900   308.86153     -436.73978      30070.215      0.99484732    -8223.4445    
    779000   308.76874      435.87979      30070.215      0.99484732    -8209.2734    
    779100   297.04146      389.0994       30070.215      0.99484732    -8260.6744    
    779200   292.46467     -19.302646      30070.215      0.99484732    -8283.6284    
    779300   299.83626     -276.18998      30070.215      0.99484732    -8272.4342    
    779400   308.38801     -46.057691      30070.215      0.99484732    -8180.5697    
    779500   297.88878     -127.45726      30070.215      0.99484732    -8195.5292    
    779600   299.12427     -23.588762      30070.215      0.99484732    -8229.2926    
    779700   303.26154     -676.05402      30070.215      0.99484732    -8254.6363    
    779800   294.63056     -15.85937       30070.215      0.99484732    -8262.414     
    779900   294.36475      95.44079       30070.215      0.99484732    -8251.2984    
    780000   303.5579      -36.869586      30070.215      0.99484732    -8220.7397    
    780100   304.31704      462.20135      30070.215      0.99484732    -8217.1932    
    780200   293.70353      145.97411      30070.215      0.99484732    -8241.2038    
    780300   295.78475      331.87815      30070.215      0.99484732    -8218.3679    
    780400   305.21786     -55.438011      30070.215      0.99484732    -8186.2729    
    780500   305.10556     -758.00851      30070.215      0.99484732    -8111.1084    
    780600   314.3934      -381.99144      30070.215      0.99484732    -8072.7472    
    780700   308.30952     -340.60245      30070.215      0.99484732    -8152.0314    
    780800   298.195       -338.76085      30070.215      0.99484732    -8199.5753    
    780900   300.8656       250.29917      30070.215      0.99484732    -8214.7883    
    781000   304.582        58.732459      30070.215      0.99484732    -8241.2844    
    781100   292.14024      78.754033      30070.215      0.99484732    -8299.4504    
    781200   299.14547      203.57831      30070.215      0.99484732    -8323.1092    
    781300   300.39884     -778.39998      30070.215      0.99484732    -8306.228     
    781400   297.69504      139.86814      30070.215      0.99484732    -8221.4816    
    781500   301.19237      128.72536      30070.215      0.99484732    -8185.7477    
    781600   301.1853       279.36347      30070.215      0.99484732    -8165.3752    
    781700   306.73322      31.893927      30070.215      0.99484732    -8183.1739    
    781800   296.90593     -35.467862      30070.215      0.99484732    -8274.0124    
    781900   300.33384      120.07752      30070.215      0.99484732    -8284.7126    
    782000   303.90254     -412.56625      30070.215      0.99484732    -8266.6008    
    782100   303.91264      178.49051      30070.215      0.99484732    -8207.635     
    782200   306.16648      322.01086      30070.215      0.99484732    -8155.8272    
    782300   299.95647     -101.44825      30070.215      0.99484732    -8168.576     
    782400   294.13449     -289.88983      30070.215      0.99484732    -8188.2466    
    782500   301.17605      311.04762      30070.215      0.99484732    -8184.8376    
    782600   295.48823     -459.68027      30070.215      0.99484732    -8193.8117    
    782700   304.56759     -469.23027      30070.215      0.99484732    -8142.4053    
    782800   309.09283     -865.46727      30070.215      0.99484732    -8073.5939    
    782900   306.46243      30.516713      30070.215      0.99484732    -8092.0405    
    783000   299.16933      584.22587      30070.215      0.99484732    -8156.4013    
    783100   297.23526     -78.081541      30070.215      0.99484732    -8212.7937    
    783200   300.88923      6.5875059      30070.215      0.99484732    -8240.2557    
    783300   295.14006      214.27282      30070.215      0.99484732    -8219.5642    
    783400   306.68195     -157.21439      30070.215      0.99484732    -8166.334     
    783500   300.43469     -518.26788      30070.215      0.99484732    -8154.0191    
    783600   309.10594     -63.079908      30070.215      0.99484732    -8154.7963    
    783700   301.51147     -231.83849      30070.215      0.99484732    -8197.4775    
    783800   294.75205      404.50459      30070.215      0.99484732    -8247.6822    
    783900   296.49255     -348.01143      30070.215      0.99484732    -8285.2176    
    784000   295.88226     -41.693436      30070.215      0.99484732    -8272.9266    
    784100   299.33804      625.98682      30070.215      0.99484732    -8182.2915    
    784200   306.29986      567.12202      30070.215      0.99484732    -8146.4959    
    784300   300.85782      43.63502       30070.215      0.99484732    -8177.5262    
    784400   295.44262     -352.65512      30070.215      0.99484732    -8206.2813    
    784500   304.33437     -409.90891      30070.215      0.99484732    -8232.0073    
    784600   294.82033     -101.09048      30070.215      0.99484732    -8284.093     
    784700   293.05688      328.37612      30070.215      0.99484732    -8319.2647    
    784800   292.99768      153.92329      30070.215      0.99484732    -8282.1627    
    784900   300.27938     -119.16758      30070.215      0.99484732    -8201.8096    
    785000   300.99179      259.83701      30070.215      0.99484732    -8171.2963    
    785100   302.24518      183.4755       30070.215      0.99484732    -8184.1009    
    785200   295.85771     -54.143928      30070.215      0.99484732    -8253.3886    
    785300   296.59759      132.94738      30070.215      0.99484732    -8291.6032    
    785400   300.5164      -177.872        30070.215      0.99484732    -8301.59      
    785500   291.33788      19.119693      30070.215      0.99484732    -8280.0206    
    785600   300.98639     -74.747366      30070.215      0.99484732    -8243.0963    
    785700   298.76935     -693.14778      30070.215      0.99484732    -8241.6765    
    785800   301.18341     -543.04902      30070.215      0.99484732    -8233.6295    
    785900   297.55256     -457.6214       30070.215      0.99484732    -8218.5576    
    786000   302.22519     -314.87453      30070.215      0.99484732    -8202.0732    
    786100   305.75552     -56.048274      30070.215      0.99484732    -8257.2971    
    786200   296.83741     -45.009471      30070.215      0.99484732    -8325.6547    
    786300   293.68386     -552.429        30070.215      0.99484732    -8297.0198    
    786400   299.7431      -28.467031      30070.215      0.99484732    -8236.2202    
    786500   302.60739      65.747727      30070.215      0.99484732    -8213.1105    
    786600   298.14799     -14.368451      30070.215      0.99484732    -8206.8387    
    786700   300.47401      519.64078      30070.215      0.99484732    -8210.7803    
    786800   296.38345      384.3367       30070.215      0.99484732    -8262.0541    
    786900   298.32257      238.17597      30070.215      0.99484732    -8310.1923    
    787000   297.01204      119.89222      30070.215      0.99484732    -8329.7963    
    787100   300.71161      708.60473      30070.215      0.99484732    -8293.8675    
    787200   308.07191      211.36959      30070.215      0.99484732    -8223.0923    
    787300   302.3552      -201.79701      30070.215      0.99484732    -8232.3646    
    787400   301.52752      42.55242       30070.215      0.99484732    -8264.4953    
    787500   295.32828      112.57176      30070.215      0.99484732    -8347.1693    
    787600   286.19415     -1056.2272      30070.215      0.99484732    -8394.9092    
    787700   294.20725      114.90213      30070.215      0.99484732    -8308.3871    
    787800   295.15725      24.597145      30070.215      0.99484732    -8239.3674    
    787900   309.42991      486.56005      30070.215      0.99484732    -8214.1457    
    788000   298.44404     -274.06185      30070.215      0.99484732    -8268.3021    
    788100   298.55541      335.51879      30070.215      0.99484732    -8294.7225    
    788200   299.36425      417.90537      30070.215      0.99484732    -8280.5826    
    788300   309.14347      304.76586      30070.215      0.99484732    -8202.1566    
    788400   304.087        241.7177       30070.215      0.99484732    -8166.33      
    788500   304.89996      132.79279      30070.215      0.99484732    -8197.3177    
    788600   301.44602     -515.5856       30070.215      0.99484732    -8232.0361    
    788700   300.31284      12.493962      30070.215      0.99484732    -8251.5304    
    788800   298.7649       373.16225      30070.215      0.99484732    -8262.6582    
    788900   298.05842      104.06641      30070.215      0.99484732    -8265.1365    
    789000   296.34011     -45.927153      30070.215      0.99484732    -8269.7681    
    789100   301.31919     -139.82468      30070.215      0.99484732    -8232.6588    
    789200   316.30083      0.88867651     30070.215      0.99484732    -8172.4294    
    789300   301.80764     -35.976288      30070.215      0.99484732    -8207.6701    
    789400   299.86968      531.72266      30070.215      0.99484732    -8261.9944    
    789500   302.31518      198.27821      30070.215      0.99484732    -8268.9335    
    789600   296.60628     -243.18413      30070.215      0.99484732    -8264.8363    
    789700   296.86932     -12.953675      30070.215      0.99484732    -8224.7364    
    789800   306.67341      563.2294       30070.215      0.99484732    -8145.8995    
    789900   304.20144      202.26082      30070.215      0.99484732    -8161.2211    
    790000   304.45838      413.40347      30070.215      0.99484732    -8206.3478    
    790100   303.0495       442.74281      30070.215      0.99484732    -8264.6318    
    790200   298.71411      256.39363      30070.215      0.99484732    -8323.2917    
    790300   286.35468     -287.75729      30070.215      0.99484732    -8346.1917    
    790400   301.85124     -598.87212      30070.215      0.99484732    -8311.5852    
    790500   296.24775      56.712689      30070.215      0.99484732    -8257.3593    
    790600   309.75533     -312.90105      30070.215      0.99484732    -8229.1693    
    790700   305.2615      -254.87528      30070.215      0.99484732    -8226.4016    
    790800   299.19108      397.48287      30070.215      0.99484732    -8240.7015    
    790900   298.98254     -602.03416      30070.215      0.99484732    -8259.6435    
    791000   297.64181      98.561603      30070.215      0.99484732    -8325.3374    
    791100   289.39705     -75.536963      30070.215      0.99484732    -8338.251     
    791200   297.34333     -352.30461      30070.215      0.99484732    -8280.8047    
    791300   307.70901     -155.98668      30070.215      0.99484732    -8251.3064    
    791400   300.13431      350.26973      30070.215      0.99484732    -8246.0959    
    791500   302.36212      41.748179      30070.215      0.99484732    -8227.8661    
    791600   296.90437      461.11363      30070.215      0.99484732    -8192.4487    
    791700   306.598       -221.42934      30070.215      0.99484732    -8145.2837    
    791800   306.54015      581.69919      30070.215      0.99484732    -8160.3734    
    791900   305.52508     -1.4198957      30070.215      0.99484732    -8245.6105    
    792000   298.29751      136.46624      30070.215      0.99484732    -8277.2411    
    792100   293.99345      512.19616      30070.215      0.99484732    -8250.939     
    792200   302.67282      85.971508      30070.215      0.99484732    -8201.8112    
    792300   305.18343      169.72014      30070.215      0.99484732    -8178.5179    
    792400   294.92869     -403.237        30070.215      0.99484732    -8181.8195    
    792500   308.67603     -398.93775      30070.215      0.99484732    -8179.1216    
    792600   303.73624     -135.18944      30070.215      0.99484732    -8212.1347    
    792700   301.31602      168.89046      30070.215      0.99484732    -8252.6148    
    792800   296.67738      721.94305      30070.215      0.99484732    -8256.4723    
    792900   303.66847      378.78241      30070.215      0.99484732    -8239.9661    
    793000   300.38765      216.67703      30070.215      0.99484732    -8204.7212    
    793100   299.86744     -95.332773      30070.215      0.99484732    -8177.3729    
    793200   301.00023     -89.419726      30070.215      0.99484732    -8181.2966    
    793300   299.80278      60.356111      30070.215      0.99484732    -8226.743     
    793400   294.17831     -75.694864      30070.215      0.99484732    -8283.3553    
    793500   292.62221      543.57291      30070.215      0.99484732    -8302.1538    
    793600   306.64601      201.22004      30070.215      0.99484732    -8222.5231    
    793700   301.53658      151.28181      30070.215      0.99484732    -8200.3999    
    793800   297.36902     -456.03401      30070.215      0.99484732    -8194.7142    
    793900   307.63916      262.82197      30070.215      0.99484732    -8185.9615    
    794000   299.55595     -283.15768      30070.215      0.99484732    -8251.1862    
    794100   292.15849      46.633169      30070.215      0.99484732    -8296.1498    
    794200   307.57443     -481.4333       30070.215      0.99484732    -8276.2044    
    794300   294.89851      208.89454      30070.215      0.99484732    -8243.4673    
    794400   301.41796     -209.43859      30070.215      0.99484732    -8161.2895    
    794500   310.18161      265.40884      30070.215      0.99484732    -8131.7473    
    794600   306.20298      176.98247      30070.215      0.99484732    -8182.5531    
    794700   294.03755      8.833256       30070.215      0.99484732    -8238.9401    
    794800   298.82805      75.194482      30070.215      0.99484732    -8247.0696    
    794900   295.55913     -1037.0235      30070.215      0.99484732    -8228.3069    
    795000   306.32474      453.35738      30070.215      0.99484732    -8142.8114    
    795100   300.84599      229.65134      30070.215      0.99484732    -8145.2115    
    795200   300.86631     -101.30123      30070.215      0.99484732    -8172.9148    
    795300   296.75019      531.44369      30070.215      0.99484732    -8212.8429    
    795400   305.39021      110.2827       30070.215      0.99484732    -8298.903     
    795500   296.84624     -120.48912      30070.215      0.99484732    -8312.9841    
    795600   297.367        207.48448      30070.215      0.99484732    -8296.9936    
    795700   304.16077      394.79649      30070.215      0.99484732    -8256.8327    
    795800   302.15826      747.53166      30070.215      0.99484732    -8227.839     
    795900   298.14995     -387.1863       30070.215      0.99484732    -8224.433     
    796000   308.24066      364.54746      30070.215      0.99484732    -8199.2072    
    796100   304.89371      217.25457      30070.215      0.99484732    -8222.8158    
    796200   298.55388     -48.557972      30070.215      0.99484732    -8291.2449    
    796300   291.41999     -132.86025      30070.215      0.99484732    -8306.384     
    796400   299.07999     -30.61671       30070.215      0.99484732    -8257.7293    
    796500   300.26339     -46.642325      30070.215      0.99484732    -8244.5855    
    796600   296.46719      682.85085      30070.215      0.99484732    -8248.7492    
    796700   301.35732     -143.51014      30070.215      0.99484732    -8267.5969    
    796800   300.74983     -409.24363      30070.215      0.99484732    -8315.7601    
    796900   291.80574     -80.061264      30070.215      0.99484732    -8325.5637    
    797000   300.17868     -868.319        30070.215      0.99484732    -8282.2385    
    797100   299.62916      0.58653354     30070.215      0.99484732    -8240.0441    
    797200   306.89858     -65.915866      30070.215      0.99484732    -8219.2238    
    797300   300.20599     -1335.8684      30070.215      0.99484732    -8217.0017    
    797400   306.35052     -544.27657      30070.215      0.99484732    -8164.7358    
    797500   308.61354      198.04298      30070.215      0.99484732    -8113.8238    
    797600   308.48497     -452.92049      30070.215      0.99484732    -8172.0976    
    797700   303.41409     -164.9795       30070.215      0.99484732    -8213.5038    
    797800   302.91229     -51.405025      30070.215      0.99484732    -8232.9694    
    797900   293.97259     -437.80872      30070.215      0.99484732    -8269.7629    
    798000   292.02171      127.98706      30070.215      0.99484732    -8279.4641    
    798100   306.12842      178.93877      30070.215      0.99484732    -8223.3298    
    798200   307.54434     -104.88666      30070.215      0.99484732    -8181.8535    
    798300   297.8178      -141.61638      30070.215      0.99484732    -8184.0802    
    798400   298.73081     -22.49637       30070.215      0.99484732    -8237.4859    
    798500   297.57483     -623.99105      30070.215      0.99484732    -8280.5267    
    798600   294.0634       259.63483      30070.215      0.99484732    -8253.1615    
    798700   307.26908      377.77867      30070.215      0.99484732    -8163.1633    
    798800   305.95787      235.00146      30070.215      0.99484732    -8167.0913    
    798900   302.11346      445.37059      30070.215      0.99484732    -8217.0205    
    799000   297.26012      317.17159      30070.215      0.99484732    -8260.5255    
    799100   303.70292     -103.98208      30070.215      0.99484732    -8262.5116    
    799200   294.92649     -39.850431      30070.215      0.99484732    -8274.7228    
    799300   294.57459     -436.06437      30070.215      0.99484732    -8272.0623    
    799400   299.83348     -322.37573      30070.215      0.99484732    -8243.5449    
    799500   307.11291      189.54233      30070.215      0.99484732    -8219.5055    
    799600   297.57532      340.79745      30070.215      0.99484732    -8265.0601    
    799700   291.9544      -96.704309      30070.215      0.99484732    -8295.7942    
    799800   303.21022     -690.07933      30070.215      0.99484732    -8253.3853    
    799900   303.68825     -572.50127      30070.215      0.99484732    -8199.3223    
    800000   309.67193     -162.71752      30070.215      0.99484732    -8120.491     
    800100   306.02738      351.56889      30070.215      0.99484732    -8155.5151    
    800200   304.56005      167.95757      30070.215      0.99484732    -8221.5367    
    800300   302.75708     -262.43814      30070.215      0.99484732    -8256.355     
    800400   300.5365      -48.068768      30070.215      0.99484732    -8260.092     
    800500   296.75091     -380.11866      30070.215      0.99484732    -8231.8236    
    800600   304.55937      305.28241      30070.215      0.99484732    -8156.1695    
    800700   297.92277      194.10222      30070.215      0.99484732    -8158.6382    
    800800   297.66929     -649.38568      30070.215      0.99484732    -8174.2011    
    800900   296.51969     -360.56058      30070.215      0.99484732    -8219.2664    
    801000   300.04815     -343.94805      30070.215      0.99484732    -8291.5156    
    801100   294.93178     -332.39672      30070.215      0.99484732    -8302.7979    
    801200   300.87719     -29.602825      30070.215      0.99484732    -8240.2834    
    801300   301.36229     -41.896986      30070.215      0.99484732    -8201.2114    
    801400   296.41147      388.39798      30070.215      0.99484732    -8220.0007    
    801500   304.25113     -64.339686      30070.215      0.99484732    -8239.0256    
    801600   294.8992       17.047847      30070.215      0.99484732    -8282.6841    
    801700   287.2063      -496.75103      30070.215      0.99484732    -8336.9308    
    801800   298.30054      14.357785      30070.215      0.99484732    -8309.2978    
    801900   306.01541      205.90144      30070.215      0.99484732    -8250.1927    
    802000   306.69708     -85.39616       30070.215      0.99484732    -8262.7283    
    802100   297.56803     -256.91554      30070.215      0.99484732    -8319.1595    
    802200   299.24373     -198.02974      30070.215      0.99484732    -8339.9205    
    802300   299.91634      519.12377      30070.215      0.99484732    -8349.5815    
    802400   294.53592      252.65595      30070.215      0.99484732    -8370.5519    
    802500   295.99282      291.52062      30070.215      0.99484732    -8365.7178    
    802600   295.63188      655.89913      30070.215      0.99484732    -8312.1377    
    802700   298.60396      48.017872      30070.215      0.99484732    -8251.6244    
    802800   299.78132      525.14345      30070.215      0.99484732    -8233.2748    
    802900   300.1344       68.003248      30070.215      0.99484732    -8257.8863    
    803000   298.28117     -405.04586      30070.215      0.99484732    -8322.8035    
    803100   295.083       -551.64106      30070.215      0.99484732    -8380.8537    
    803200   296.37432     -39.688147      30070.215      0.99484732    -8327.084     
    803300   304.97698      385.35992      30070.215      0.99484732    -8245.2612    
    803400   295.63419      540.93226      30070.215      0.99484732    -8259.6398    
    803500   293.71522      172.24541      30070.215      0.99484732    -8291.8214    
    803600   294.59642     -374.57574      30070.215      0.99484732    -8329.1199    
    803700   288.83521      548.52823      30070.215      0.99484732    -8306.7525    
    803800   300.9408      -15.907773      30070.215      0.99484732    -8224.1452    
    803900   306.83511     -336.34507      30070.215      0.99484732    -8210.4155    
    804000   299.70006     -114.77158      30070.215      0.99484732    -8222.4689    
    804100   299.64538     -15.819652      30070.215      0.99484732    -8252.8203    
    804200   297.46107     -56.000963      30070.215      0.99484732    -8307.0327    
    804300   287.60161      21.570527      30070.215      0.99484732    -8353.6197    
    804400   294.26327     -441.78501      30070.215      0.99484732    -8315.8633    
    804500   310.39605      416.92306      30070.215      0.99484732    -8245.5983    
    804600   302.07118      652.38115      30070.215      0.99484732    -8257.0693    
    804700   303.64223     -21.657083      30070.215      0.99484732    -8288.221     
    804800   288.77707     -537.43118      30070.215      0.99484732    -8338.4237    
    804900   291.54416     -31.322999      30070.215      0.99484732    -8324.5729    
    805000   299.27403      113.81748      30070.215      0.99484732    -8282.6904    
    805100   299.95058     -13.53236       30070.215      0.99484732    -8267.2158    
    805200   303.02358      266.21987      30070.215      0.99484732    -8256.7141    
    805300   300.93628      512.5865       30070.215      0.99484732    -8275.2286    
    805400   294.64767      275.77298      30070.215      0.99484732    -8307.6419    
    805500   290.70613     -190.92921      30070.215      0.99484732    -8334.3571    
    805600   295.61134      50.408196      30070.215      0.99484732    -8301.6377    
    805700   300.98351     -155.58251      30070.215      0.99484732    -8230.0162    
    805800   303.59846      79.67667       30070.215      0.99484732    -8223.5537    
    805900   301.28687      333.47837      30070.215      0.99484732    -8257.9165    
    806000   292.25687     -3.4699922      30070.215      0.99484732    -8326.6055    
    806100   293.14067     -221.98309      30070.215      0.99484732    -8307.6247    
    806200   300.75879      392.17372      30070.215      0.99484732    -8285.1779    
    806300   295.03712     -207.02943      30070.215      0.99484732    -8278.2905    
    806400   308.54252     -3.7995878      30070.215      0.99484732    -8235.4522    
    806500   306.34646      246.561        30070.215      0.99484732    -8221.8763    
    806600   300.62462     -379.41721      30070.215      0.99484732    -8302.0751    
    806700   296.13475     -108.01539      30070.215      0.99484732    -8333.9169    
    806800   297.61259      194.36318      30070.215      0.99484732    -8326.8505    
    806900   300.3244      -216.81715      30070.215      0.99484732    -8270.4527    
    807000   306.4694      -81.854182      30070.215      0.99484732    -8230.3984    
    807100   298.27944     -122.56784      30070.215      0.99484732    -8232.3303    
    807200   299.24074     -269.30818      30070.215      0.99484732    -8228.9357    
    807300   300.58613      374.69678      30070.215      0.99484732    -8214.1536    
    807400   299.62029     -171.58527      30070.215      0.99484732    -8215.2442    
    807500   297.86085      99.899402      30070.215      0.99484732    -8214.7129    
    807600   291.32255     -482.07428      30070.215      0.99484732    -8205.3968    
    807700   302.5316      -277.5689       30070.215      0.99484732    -8159.2745    
    807800   305.53877     -329.5165       30070.215      0.99484732    -8132.3511    
    807900   304.48685     -1231.8559      30070.215      0.99484732    -8175.5031    
    808000   295.56867     -605.11628      30070.215      0.99484732    -8258.8228    
    808100   299.10001      90.605585      30070.215      0.99484732    -8276.9962    
    808200   297.86156     -570.46545      30070.215      0.99484732    -8296.1298    
    808300   303.61349     -718.04178      30070.215      0.99484732    -8337.8642    
    808400   292.88522     -531.23695      30070.215      0.99484732    -8407.878     
    808500   290.6357       329.22317      30070.215      0.99484732    -8392.0594    
    808600   295.88292     -294.4742       30070.215      0.99484732    -8312.1012    
    808700   301.86055     -57.612008      30070.215      0.99484732    -8283.8591    
    808800   301.93496     -365.77828      30070.215      0.99484732    -8266.9884    
    808900   309.88629     -15.738631      30070.215      0.99484732    -8231.7255    
    809000   295.1007       285.55         30070.215      0.99484732    -8246.5755    
    809100   300.68008     -429.67043      30070.215      0.99484732    -8277.9524    
    809200   292.77419     -188.17313      30070.215      0.99484732    -8341.8324    
    809300   296.9189      -448.2897       30070.215      0.99484732    -8312.2563    
    809400   309.65955     -739.7754       30070.215      0.99484732    -8258.7226    
    809500   301.95184     -57.493264      30070.215      0.99484732    -8263.9006    
    809600   301.16341      245.23642      30070.215      0.99484732    -8257.3375    
    809700   302.41249     -257.25117      30070.215      0.99484732    -8246.1977    
    809800   300.98115      367.26146      30070.215      0.99484732    -8240.1821    
    809900   294.04608     -406.38255      30070.215      0.99484732    -8298.9365    
    810000   299.16436     -430.02712      30070.215      0.99484732    -8306.7178    
    810100   303.85774      120.4698       30070.215      0.99484732    -8269.8681    
    810200   311.66278     -175.42391      30070.215      0.99484732    -8242.207     
    810300   300.95491     -161.76721      30070.215      0.99484732    -8260.0564    
    810400   303.44051     -310.9882       30070.215      0.99484732    -8285.2288    
    810500   304.85084     -357.45597      30070.215      0.99484732    -8286.283     
    810600   298.20821      181.26557      30070.215      0.99484732    -8244.9197    
    810700   311.73914      132.95299      30070.215      0.99484732    -8188.2736    
    810800   302.66101      366.28291      30070.215      0.99484732    -8220.5197    
    810900   296.01861     -20.91349       30070.215      0.99484732    -8272.8451    
    811000   307.0219      -340.05179      30070.215      0.99484732    -8263.41      
    811100   295.26525      239.32423      30070.215      0.99484732    -8271.9032    
    811200   302.55169      185.75895      30070.215      0.99484732    -8279.3098    
    811300   296.57394     -87.559904      30070.215      0.99484732    -8337.535     
    811400   289.14175     -208.27375      30070.215      0.99484732    -8375.3946    
    811500   293.19083      416.6574       30070.215      0.99484732    -8318.1125    
    811600   304.39371     -331.15308      30070.215      0.99484732    -8278.8546    
    811700   299.99473      180.97942      30070.215      0.99484732    -8264.6425    
    811800   300.54736     -482.58065      30070.215      0.99484732    -8259.0377    
    811900   293.38264     -196.83439      30070.215      0.99484732    -8239.9501    
    812000   302.66605     -664.20452      30070.215      0.99484732    -8144.5111    
    812100   302.8926      -325.84766      30070.215      0.99484732    -8144.5021    
    812200   298.3129      -271.00088      30070.215      0.99484732    -8179.4802    
    812300   291.00769     -572.08228      30070.215      0.99484732    -8233.2162    
    812400   301.25627     -669.76894      30070.215      0.99484732    -8206.8657    
    812500   303.532        209.87139      30070.215      0.99484732    -8118.7597    
    812600   298.16422      346.67124      30070.215      0.99484732    -8117.9779    
    812700   301.54185      522.58634      30070.215      0.99484732    -8165.0418    
    812800   299.49525      347.782        30070.215      0.99484732    -8227.8882    
    812900   296.25275     -543.8299       30070.215      0.99484732    -8244.696     
    813000   295.87401      371.33248      30070.215      0.99484732    -8209.4073    
    813100   301.40801      221.75047      30070.215      0.99484732    -8156.3118    
    813200   311.1726       128.67549      30070.215      0.99484732    -8083.6265    
    813300   309.86615      173.19104      30070.215      0.99484732    -8117.544     
    813400   301.65114     -579.35882      30070.215      0.99484732    -8219.0923    
    813500   295.99374      41.243611      30070.215      0.99484732    -8226.6281    
    813600   306.23619     -4.2422237      30070.215      0.99484732    -8202.5894    
    813700   301.56628      266.27252      30070.215      0.99484732    -8191.2396    
    813800   313.77764      440.01054      30070.215      0.99484732    -8178.9725    
    813900   295.99683     -24.609476      30070.215      0.99484732    -8253.601     
    814000   293.53849     -867.35354      30070.215      0.99484732    -8248.5183    
    814100   300.17082      246.05413      30070.215      0.99484732    -8197.0138    
    814200   301.56829      319.60197      30070.215      0.99484732    -8189.8628    
    814300   296.88777     -108.23008      30070.215      0.99484732    -8216.6431    
    814400   296.60368      174.56062      30070.215      0.99484732    -8247.4339    
    814500   307.17041     -0.37341826     30070.215      0.99484732    -8188.0649    
    814600   308.48872     -331.18401      30070.215      0.99484732    -8129.7894    
    814700   307.5005      -7.6650283      30070.215      0.99484732    -8163.0801    
    814800   296.72081     -199.56166      30070.215      0.99484732    -8223.8717    
    814900   299.97265     -507.05621      30070.215      0.99484732    -8245.3669    
    815000   300.27746      288.33146      30070.215      0.99484732    -8235.7221    
    815100   302.61076     -314.32447      30070.215      0.99484732    -8210.4898    
    815200   285.52803     -451.9656       30070.215      0.99484732    -8206.4131    
    815300   300.59891      463.17286      30070.215      0.99484732    -8174.7643    
    815400   295.65325     -208.72213      30070.215      0.99484732    -8192.2151    
    815500   299.06483     -198.24017      30070.215      0.99484732    -8247.3048    
    815600   296.27125     -316.88909      30070.215      0.99484732    -8302.8812    
    815700   300.0843      -165.93667      30070.215      0.99484732    -8301.3769    
    815800   298.01181     -139.85978      30070.215      0.99484732    -8279.4293    
    815900   302.09317      123.94023      30070.215      0.99484732    -8253.6158    
    816000   302.62988      148.77696      30070.215      0.99484732    -8220.6946    
    816100   307.82419      145.86465      30070.215      0.99484732    -8203.9752    
    816200   292.42444      525.69047      30070.215      0.99484732    -8263.6491    
    816300   298.45153     -95.209024      30070.215      0.99484732    -8315.9145    
    816400   299.24801     -568.21219      30070.215      0.99484732    -8290.4222    
    816500   300.98749      99.971318      30070.215      0.99484732    -8223.8161    
    816600   305.11249      336.88053      30070.215      0.99484732    -8199.6376    
    816700   300.78096      425.85409      30070.215      0.99484732    -8207.5197    
    816800   298.78326      745.71813      30070.215      0.99484732    -8260.6101    
    816900   293.92171     -461.16324      30070.215      0.99484732    -8306.9706    
    817000   297.62263     -267.99884      30070.215      0.99484732    -8281.7303    
    817100   305.72304     -252.12548      30070.215      0.99484732    -8255.8185    
    817200   304.66328      342.18526      30070.215      0.99484732    -8263.8009    
    817300   296.304       -416.58228      30070.215      0.99484732    -8287.4251    
    817400   296.14998     -33.977371      30070.215      0.99484732    -8292.9469    
    817500   301.41982      243.11817      30070.215      0.99484732    -8244.2402    
    817600   301.38489     -148.30835      30070.215      0.99484732    -8211.1108    
    817700   303.98668      272.23635      30070.215      0.99484732    -8180.0097    
    817800   305.93003     -684.44864      30070.215      0.99484732    -8197.4156    
    817900   298.11225     -861.79039      30070.215      0.99484732    -8265.6255    
    818000   292.49302      329.79837      30070.215      0.99484732    -8260.7725    
    818100   308.34828      534.90528      30070.215      0.99484732    -8223.966     
    818200   312.29094      319.3228       30070.215      0.99484732    -8173.0709    
    818300   305.9555       63.922127      30070.215      0.99484732    -8180.6629    
    818400   307.75269     -348.37216      30070.215      0.99484732    -8258.2471    
    818500   294.30568      8.4926593      30070.215      0.99484732    -8298.6163    
    818600   298.73013     -167.6149       30070.215      0.99484732    -8287.4179    
    818700   293.87583      85.564804      30070.215      0.99484732    -8278.632     
    818800   293.05993      283.47599      30070.215      0.99484732    -8243.1934    
    818900   309.57793      148.78464      30070.215      0.99484732    -8175.8985    
    819000   307.81599      296.43582      30070.215      0.99484732    -8190.2189    
    819100   302.05253     -83.265211      30070.215      0.99484732    -8266.4004    
    819200   299.52766     -107.41924      30070.215      0.99484732    -8288.8384    
    819300   304.41649      593.83392      30070.215      0.99484732    -8276.4336    
    819400   302.74638      362.56488      30070.215      0.99484732    -8290.2965    
    819500   286.6679      -257.65468      30070.215      0.99484732    -8355.1302    
    819600   305.62081      135.35992      30070.215      0.99484732    -8356.2256    
    819700   288.55361      662.37026      30070.215      0.99484732    -8308.375     
    819800   300.4259       577.8777       30070.215      0.99484732    -8228.3159    
    819900   306.8365       59.695607      30070.215      0.99484732    -8225.1073    
    820000   301.83511     -75.029869      30070.215      0.99484732    -8276.6644    
    820100   289.968       -80.401833      30070.215      0.99484732    -8324.7663    
    820200   301.67457      407.92022      30070.215      0.99484732    -8293.37      
    820300   296.78775      229.02057      30070.215      0.99484732    -8266.2969    
    820400   299.84656      531.47438      30070.215      0.99484732    -8262.965     
    820500   302.82625      14.145316      30070.215      0.99484732    -8269.187     
    820600   294.32817      171.37395      30070.215      0.99484732    -8329.8005    
    820700   294.18084      128.3223       30070.215      0.99484732    -8390.319     
    820800   292.94309      504.55568      30070.215      0.99484732    -8358.2624    
    820900   295.78984     -564.05798      30070.215      0.99484732    -8308.2739    
    821000   301.13407     -204.96379      30070.215      0.99484732    -8240.9209    
    821100   303.33835      880.33699      30070.215      0.99484732    -8221.2749    
    821200   300.11066      394.93147      30070.215      0.99484732    -8255.8192    
    821300   296.27085     -262.96126      30070.215      0.99484732    -8314.1027    
    821400   294.27218     -404.15029      30070.215      0.99484732    -8329.2829    
    821500   304.86318      115.01428      30070.215      0.99484732    -8254.9478    
    821600   301.51134     -463.99946      30070.215      0.99484732    -8248.4886    
    821700   297.72787     -350.41613      30070.215      0.99484732    -8262.2987    
    821800   302.40367     -199.67743      30070.215      0.99484732    -8269.4138    
    821900   300.21643     -2.9503578      30070.215      0.99484732    -8281.2865    
    822000   291.16543     -102.96291      30070.215      0.99484732    -8282.0014    
    822100   310.13347      331.70506      30070.215      0.99484732    -8235.121     
    822200   298.87664     -216.90033      30070.215      0.99484732    -8235.6346    
    822300   299.19846     -239.82717      30070.215      0.99484732    -8267.5362    
    822400   296.47593     -592.87309      30070.215      0.99484732    -8304.2264    
    822500   301.30131     -545.14792      30070.215      0.99484732    -8283.734     
    822600   305.50416      653.83612      30070.215      0.99484732    -8217.1156    
    822700   301.88611      52.130598      30070.215      0.99484732    -8220.474     
    822800   297.64043      282.76674      30070.215      0.99484732    -8277.8627    
    822900   290.37438      121.08777      30070.215      0.99484732    -8350.651     
    823000   293.36598     -216.64523      30070.215      0.99484732    -8352.9505    
    823100   300.70094     -149.36287      30070.215      0.99484732    -8316.5108    
    823200   305.11327     -292.51799      30070.215      0.99484732    -8288.0213    
    823300   295.94362      498.27162      30070.215      0.99484732    -8327.2703    
    823400   297.02089     -99.833453      30070.215      0.99484732    -8358.3283    
    823500   299.20269      521.10509      30070.215      0.99484732    -8333.3687    
    823600   302.40985      177.22834      30070.215      0.99484732    -8258.9269    
    823700   291.50234     -27.494382      30070.215      0.99484732    -8241.1166    
    823800   309.16052     -255.76364      30070.215      0.99484732    -8237.241     
    823900   296.57755     -553.24569      30070.215      0.99484732    -8296.0388    
    824000   293.9109      -5.9286111      30070.215      0.99484732    -8343.9412    
    824100   300.18275     -210.72623      30070.215      0.99484732    -8337.0755    
    824200   303.94081      295.96438      30070.215      0.99484732    -8259.5496    
    824300   302.87327     -214.56744      30070.215      0.99484732    -8198.9743    
    824400   303.40898     -337.81165      30070.215      0.99484732    -8185.8033    
    824500   297.28999      27.013361      30070.215      0.99484732    -8183.3762    
    824600   293.99831     -187.12416      30070.215      0.99484732    -8233.7025    
    824700   293.29632      208.72967      30070.215      0.99484732    -8307.9711    
    824800   295.33022      350.00637      30070.215      0.99484732    -8304.2932    
    824900   293.5704      -189.65742      30070.215      0.99484732    -8260.2975    
    825000   307.32804      562.36614      30070.215      0.99484732    -8202.3179    
    825100   302.36016      311.20074      30070.215      0.99484732    -8221.1351    
    825200   296.6198       514.83629      30070.215      0.99484732    -8252.533     
    825300   300.4409       51.918949      30070.215      0.99484732    -8257.7642    
    825400   302.97907      649.89753      30070.215      0.99484732    -8270.6096    
    825500   294.56866     -329.73219      30070.215      0.99484732    -8350.0571    
    825600   302.3548      -274.08033      30070.215      0.99484732    -8357.0854    
    825700   292.10606     -83.811588      30070.215      0.99484732    -8329.6075    
    825800   294.34479      306.4311       30070.215      0.99484732    -8279.5455    
    825900   300.79968     -186.64313      30070.215      0.99484732    -8265.4316    
    826000   302.75231     -454.85521      30070.215      0.99484732    -8276.3442    
    826100   297.20655     -337.52558      30070.215      0.99484732    -8297.414     
    826200   302.42709      157.8002       30070.215      0.99484732    -8341.2794    
    826300   292.20502     -116.58531      30070.215      0.99484732    -8408.7082    
    826400   293.66102      198.41325      30070.215      0.99484732    -8398.46      
    826500   305.8341       39.480177      30070.215      0.99484732    -8324.6824    
    826600   296.69231     -0.38618445     30070.215      0.99484732    -8302.9106    
    826700   292.58352      163.28573      30070.215      0.99484732    -8271.3901    
    826800   302.05113      388.07115      30070.215      0.99484732    -8235.8222    
    826900   305.32324      16.808158      30070.215      0.99484732    -8237.8802    
    827000   289.64816     -130.70746      30070.215      0.99484732    -8308.8365    
    827100   292.3288       171.04367      30070.215      0.99484732    -8329.0979    
    827200   303.14148      126.69753      30070.215      0.99484732    -8290.0953    
    827300   313.04273      613.74386      30070.215      0.99484732    -8204.2411    
    827400   304.75805      490.14574      30070.215      0.99484732    -8194.3115    
    827500   292.86335      177.87603      30070.215      0.99484732    -8238.3836    
    827600   300.62932     -473.18589      30070.215      0.99484732    -8295.8877    
    827700   292.32289     -311.92076      30070.215      0.99484732    -8378.4149    
    827800   285.59013     -205.16826      30070.215      0.99484732    -8423.9985    
    827900   296.17077      367.09527      30070.215      0.99484732    -8323.0299    
    828000   300.43061     -371.60222      30070.215      0.99484732    -8288.3055    
    828100   300.05217     -248.41465      30070.215      0.99484732    -8254.5309    
    828200   300.55829      268.47365      30070.215      0.99484732    -8236.8838    
    828300   287.49076      172.36776      30070.215      0.99484732    -8255.2823    
    828400   300.01833     -364.67872      30070.215      0.99484732    -8260.8408    
    828500   294.05791     -218.75989      30070.215      0.99484732    -8265.6731    
    828600   299.85961     -447.17836      30070.215      0.99484732    -8247.7805    
    828700   307.79156     -613.06466      30070.215      0.99484732    -8219.3484    
    828800   306.84856     -166.83898      30070.215      0.99484732    -8226.705     
    828900   303.57233     -844.33365      30070.215      0.99484732    -8296.2724    
    829000   296.67682     -187.80019      30070.215      0.99484732    -8332.5197    
    829100   298.95547     -382.15954      30070.215      0.99484732    -8324.0322    
    829200   295.82145      594.84997      30070.215      0.99484732    -8260.0579    
    829300   306.9613       571.02752      30070.215      0.99484732    -8186.5249    
    829400   301.06125      47.515832      30070.215      0.99484732    -8226.916     
    829500   292.00754     -398.11684      30070.215      0.99484732    -8262.7045    
    829600   299.59867      373.03875      30070.215      0.99484732    -8248.3092    
    829700   307.20238      580.66565      30070.215      0.99484732    -8213.0354    
    829800   292.45583      765.54955      30070.215      0.99484732    -8279.701     
    829900   294.9822       361.34         30070.215      0.99484732    -8327.449     
    830000   294.57476      604.79774      30070.215      0.99484732    -8285.096     
    830100   298.97014      88.382922      30070.215      0.99484732    -8229.3843    
    830200   295.57858     -384.4674       30070.215      0.99484732    -8206.2185    
    830300   309.65083     -455.42763      30070.215      0.99484732    -8175.0447    
    830400   295.85039     -17.387244      30070.215      0.99484732    -8186.967     
    830500   306.57014      73.007647      30070.215      0.99484732    -8249.7989    
    830600   302.93195     -183.60807      30070.215      0.99484732    -8304.8077    
    830700   300.47747      35.710155      30070.215      0.99484732    -8321.4319    
    830800   299.02586      56.726743      30070.215      0.99484732    -8354.4158    
    830900   295.22086     -278.31107      30070.215      0.99484732    -8428.3949    
    831000   285.35542     -180.43228      30070.215      0.99484732    -8412.9634    
    831100   296.12693      415.56725      30070.215      0.99484732    -8357.8065    
    831200   305.24566     -211.77066      30070.215      0.99484732    -8343.1832    
    831300   298.02709     -947.6428       30070.215      0.99484732    -8332.7211    
    831400   305.21859     -153.22689      30070.215      0.99484732    -8252.943     
    831500   304.62358      598.60386      30070.215      0.99484732    -8234.7586    
    831600   302.65671      549.35759      30070.215      0.99484732    -8268.0201    
    831700   300.44757     -303.59974      30070.215      0.99484732    -8304.8222    
    831800   300.75669     -773.9225       30070.215      0.99484732    -8302.6934    
    831900   303.08095     -48.765893      30070.215      0.99484732    -8197.6907    
    832000   298.70473      1184.4298      30070.215      0.99484732    -8196.2121    
    832100   301.0793      -142.24415      30070.215      0.99484732    -8260.5442    
    832200   296.88164     -290.62246      30070.215      0.99484732    -8290.8958    
    832300   305.02085      244.798        30070.215      0.99484732    -8280.5172    
    832400   296.26155     -85.15166       30070.215      0.99484732    -8313.6129    
    832500   282.50762     -250.8534       30070.215      0.99484732    -8379.8441    
    832600   295.97466      157.81313      30070.215      0.99484732    -8367.737     
    832700   301.01422      377.35763      30070.215      0.99484732    -8284.2909    
    832800   299.42829      882.15178      30070.215      0.99484732    -8263.4376    
    832900   308.3043       147.18324      30070.215      0.99484732    -8283.3983    
    833000   285.98376     -69.225405      30070.215      0.99484732    -8328.2632    
    833100   297.84148      185.66706      30070.215      0.99484732    -8309.9544    
    833200   303.87764      28.072701      30070.215      0.99484732    -8293.79      
    833300   296.58321     -536.73334      30070.215      0.99484732    -8273.5202    
    833400   294.78389     -127.29934      30070.215      0.99484732    -8241.2921    
    833500   306.3774       67.319511      30070.215      0.99484732    -8201.7398    
    833600   301.96935     -420.42093      30070.215      0.99484732    -8200.7986    
    833700   300.74251     -232.52841      30070.215      0.99484732    -8256.5915    
    833800   282.37968     -83.775209      30070.215      0.99484732    -8346.36      
    833900   300.15862      121.94375      30070.215      0.99484732    -8307.3165    
    834000   298.93348     -109.82596      30070.215      0.99484732    -8261.9279    
    834100   297.95922      358.11988      30070.215      0.99484732    -8206.5577    
    834200   314.92254     -254.93912      30070.215      0.99484732    -8189.644     
    834300   299.29271     -136.61191      30070.215      0.99484732    -8221.8133    
    834400   299.67577     -205.02167      30070.215      0.99484732    -8230.953     
    834500   297.09301      273.52051      30070.215      0.99484732    -8232.5222    
    834600   299.54826     -184.70351      30070.215      0.99484732    -8230.9111    
    834700   299.09354     -518.20391      30070.215      0.99484732    -8246.7711    
    834800   301.69963     -849.58864      30070.215      0.99484732    -8293.8317    
    834900   291.06111     -455.97672      30070.215      0.99484732    -8308.9302    
    835000   307.77166     -247.66861      30070.215      0.99484732    -8255.2055    
    835100   308.05969     -52.089439      30070.215      0.99484732    -8240.5319    
    835200   299.19983     -307.04493      30070.215      0.99484732    -8328.8405    
    835300   293.85276     -732.56964      30070.215      0.99484732    -8350.8347    
    835400   300.99721     -452.87442      30070.215      0.99484732    -8299.9004    
    835500   301.52584     -505.93567      30070.215      0.99484732    -8250.4988    
    835600   305.20382     -45.978522      30070.215      0.99484732    -8239.931     
    835700   296.0146       412.95783      30070.215      0.99484732    -8271.8391    
    835800   292.91375     -534.77139      30070.215      0.99484732    -8351.7594    
    835900   298.52882     -437.14752      30070.215      0.99484732    -8365.9564    
    836000   296.84716     -265.04306      30070.215      0.99484732    -8318.8989    
    836100   299.86596     -363.91785      30070.215      0.99484732    -8282.394     
    836200   299.40307     -334.65264      30070.215      0.99484732    -8277.5033    
    836300   304.7873      -378.83688      30070.215      0.99484732    -8260.6806    
    836400   301.06298      72.529539      30070.215      0.99484732    -8222.6072    
    836500   314.93873      219.30774      30070.215      0.99484732    -8180.7707    
    836600   301.10891     -139.57183      30070.215      0.99484732    -8262.4433    
    836700   293.29403      335.10436      30070.215      0.99484732    -8298.0878    
    836800   297.05808      570.78236      30070.215      0.99484732    -8285.3085    
    836900   301.22206     -248.28829      30070.215      0.99484732    -8253.7911    
    837000   302.26337      4.5828982      30070.215      0.99484732    -8203.4353    
    837100   304.04942     -340.65296      30070.215      0.99484732    -8140.7377    
    837200   307.80148     -209.13921      30070.215      0.99484732    -8103.1943    
    837300   297.97555     -473.07469      30070.215      0.99484732    -8165.7794    
    837400   294.80858      92.925796      30070.215      0.99484732    -8233.2392    
    837500   301.24844     -281.56061      30070.215      0.99484732    -8241.114     
    837600   297.91087     -134.44555      30070.215      0.99484732    -8257.5854    
    837700   293.89345     -76.906215      30070.215      0.99484732    -8323.5736    
    837800   286.97392     -709.4827       30070.215      0.99484732    -8348.0405    
    837900   302.67035     -157.09814      30070.215      0.99484732    -8270.9438    
    838000   297.96372     -87.579617      30070.215      0.99484732    -8253.5078    
    838100   305.0108      -211.58352      30070.215      0.99484732    -8232.0644    
    838200   301.48051      198.63176      30070.215      0.99484732    -8213.5234    
    838300   309.65941      95.600854      30070.215      0.99484732    -8203.7293    
    838400   298.62806      11.81117       30070.215      0.99484732    -8297.646     
    838500   292.2687      -90.518025      30070.215      0.99484732    -8321.3719    
    838600   302.47145     -229.68026      30070.215      0.99484732    -8275.4297    
    838700   292.48568      195.00261      30070.215      0.99484732    -8229.883     
    838800   312.7786      -28.301299      30070.215      0.99484732    -8189.9567    
    838900   304.49014     -478.79807      30070.215      0.99484732    -8208.3333    
    839000   296.41649     -251.40406      30070.215      0.99484732    -8216.6574    
    839100   304.64095     -252.29544      30070.215      0.99484732    -8192.1735    
    839200   306.7517      -162.08425      30070.215      0.99484732    -8197.0704    
    839300   299.18276      24.770842      30070.215      0.99484732    -8283.4916    
    839400   290.11688     -312.40609      30070.215      0.99484732    -8324.5603    
    839500   301.02944     -459.27714      30070.215      0.99484732    -8283.5322    
    839600   305.25356     -54.427943      30070.215      0.99484732    -8244.8081    
    839700   297.28004     -84.886455      30070.215      0.99484732    -8254.011     
    839800   305.01132     -166.59151      30070.215      0.99484732    -8253.884     
    839900   301.59942     -492.34453      30070.215      0.99484732    -8300.5749    
    840000   289.33697     -201.96405      30070.215      0.99484732    -8377.2201    
    840100   296.14896      115.00341      30070.215      0.99484732    -8331.3655    
    840200   304.22886      61.956172      30070.215      0.99484732    -8280.8795    
    840300   296.87685      369.48023      30070.215      0.99484732    -8276.8734    
    840400   299.33109      12.800726      30070.215      0.99484732    -8239.5518    
    840500   307.22648     -8.3266418      30070.215      0.99484732    -8161.3831    
    840600   303.2974       192.92883      30070.215      0.99484732    -8164.8065    
    840700   308.57487     -577.44903      30070.215      0.99484732    -8207.1835    
    840800   299.87531     -1255.3782      30070.215      0.99484732    -8243.6037    
    840900   302.55372     -722.87854      30070.215      0.99484732    -8231.1106    
    841000   300.09363     -308.36387      30070.215      0.99484732    -8220.0959    
    841100   300.74593      293.55196      30070.215      0.99484732    -8225.9967    
    841200   283.33443      142.1729       30070.215      0.99484732    -8315.5174    
    841300   303.36379     -329.62779      30070.215      0.99484732    -8301.0831    
    841400   298.05601     -57.223908      30070.215      0.99484732    -8283.6943    
    841500   300.53857     -20.713021      30070.215      0.99484732    -8224.9411    
    841600   304.71044     -144.40719      30070.215      0.99484732    -8166.3932    
    841700   303.97161      36.214089      30070.215      0.99484732    -8186.6418    
    841800   294.1068      -126.00964      30070.215      0.99484732    -8254.8975    
    841900   299.14948     -381.57434      30070.215      0.99484732    -8262.4706    
    842000   305.83054      45.722961      30070.215      0.99484732    -8261.359     
    842100   298.15402     -519.20647      30070.215      0.99484732    -8296.4481    
    842200   287.63966     -918.60669      30070.215      0.99484732    -8334.8257    
    842300   298.28924      169.29111      30070.215      0.99484732    -8270.9787    
    842400   302.47621     -94.425308      30070.215      0.99484732    -8219.2639    
    842500   303.156        316.07561      30070.215      0.99484732    -8215.4318    
    842600   303.81457      27.347531      30070.215      0.99484732    -8220.4563    
    842700   299.17515     -139.07097      30070.215      0.99484732    -8228.5265    
    842800   301.49592     -87.14821       30070.215      0.99484732    -8253.1964    
    842900   294.94642     -518.07147      30070.215      0.99484732    -8286.8801    
    843000   298.32754      981.34485      30070.215      0.99484732    -8326.3279    
    843100   295.72185      341.74888      30070.215      0.99484732    -8381.9274    
    843200   282.04587      131.77508      30070.215      0.99484732    -8390.4736    
    843300   306.10276     -30.542715      30070.215      0.99484732    -8291.0063    
    843400   297.99872      341.62881      30070.215      0.99484732    -8284.1033    
    843500   295.87577      374.06004      30070.215      0.99484732    -8278.2872    
    843600   296.83251      587.84603      30070.215      0.99484732    -8242.0307    
    843700   306.71614      127.39712      30070.215      0.99484732    -8178.1572    
    843800   303.20722     -28.969953      30070.215      0.99484732    -8190.7577    
    843900   301.77428     -218.8567       30070.215      0.99484732    -8227.7888    
    844000   305.59255     -536.58231      30070.215      0.99484732    -8248.2249    
    844100   308.34339     -459.49556      30070.215      0.99484732    -8258.1621    
    844200   296.60773      364.25747      30070.215      0.99484732    -8272.2009    
    844300   293.32724     -31.906195      30070.215      0.99484732    -8293.9477    
    844400   304.54561     -493.53452      30070.215      0.99484732    -8290.1164    
    844500   305.15191     -252.34768      30070.215      0.99484732    -8266.0305    
    844600   300.10023     -389.96862      30070.215      0.99484732    -8222.6314    
    844700   300.93053      447.66752      30070.215      0.99484732    -8172.9181    
    844800   307.37607      182.84336      30070.215      0.99484732    -8166.4657    
    844900   293.57947     -654.76097      30070.215      0.99484732    -8261.8254    
    845000   303.14816     -738.77077      30070.215      0.99484732    -8280.542     
    845100   301.72704     -484.40994      30070.215      0.99484732    -8282.3033    
    845200   300.93771     -99.00012       30070.215      0.99484732    -8305.2273    
    845300   299.70996     -994.38299      30070.215      0.99484732    -8346.1461    
    845400   293.17447     -227.52389      30070.215      0.99484732    -8331.8862    
    845500   308.0644       418.29685      30070.215      0.99484732    -8265.1756    
    845600   297.04606     -45.513044      30070.215      0.99484732    -8285.5544    
    845700   302.82674      361.0284       30070.215      0.99484732    -8278.0332    
    845800   305.19064     -153.9309       30070.215      0.99484732    -8214.1038    
    845900   307.33029     -950.83269      30070.215      0.99484732    -8188.3418    
    846000   301.112       -358.62081      30070.215      0.99484732    -8242.582     
    846100   293.30814     -152.07442      30070.215      0.99484732    -8285.0668    
    846200   298.35548     -79.277114      30070.215      0.99484732    -8240.3597    
    846300   299.22683      9.0832563      30070.215      0.99484732    -8167.5423    
    846400   302.94966      41.503664      30070.215      0.99484732    -8177.506     
    846500   303.28553      526.47803      30070.215      0.99484732    -8227.2857    
    846600   298.94869      289.29819      30070.215      0.99484732    -8292.221     
    846700   291.49868      928.38347      30070.215      0.99484732    -8291.8994    
    846800   299.93808      907.5726       30070.215      0.99484732    -8273.1367    
    846900   301.60439      709.94146      30070.215      0.99484732    -8279.1776    
    847000   301.21994      499.10716      30070.215      0.99484732    -8284.4473    
    847100   297.66233      120.15809      30070.215      0.99484732    -8323.6075    
    847200   297.32566      96.671146      30070.215      0.99484732    -8360.1605    
    847300   296.89108      46.641115      30070.215      0.99484732    -8371.7871    
    847400   303.83104     -161.89682      30070.215      0.99484732    -8334.3654    
    847500   298.3916       380.61838      30070.215      0.99484732    -8274.2889    
    847600   304.45476     -82.228114      30070.215      0.99484732    -8231.101     
    847700   306.70384     -136.49704      30070.215      0.99484732    -8206.8906    
    847800   301.66482      156.81808      30070.215      0.99484732    -8270.3788    
    847900   297.23183     -267.39754      30070.215      0.99484732    -8330.5724    
    848000   293.88733      33.358128      30070.215      0.99484732    -8324.5925    
    848100   301.93828      163.82011      30070.215      0.99484732    -8263.2499    
    848200   298.40319      456.75308      30070.215      0.99484732    -8225.0489    
    848300   296.99845     -132.53573      30070.215      0.99484732    -8228.448     
    848400   308.37458      45.162187      30070.215      0.99484732    -8222.8243    
    848500   304.75357      34.625366      30070.215      0.99484732    -8262.2188    
    848600   297.54234      74.986449      30070.215      0.99484732    -8353.4254    
    848700   290.71315      206.89631      30070.215      0.99484732    -8359.8243    
    848800   307.40654      516.30256      30070.215      0.99484732    -8315.4899    
    848900   297.45582      39.314202      30070.215      0.99484732    -8309.4341    
    849000   299.17128      376.99605      30070.215      0.99484732    -8265.4041    
    849100   301.91579     -4.7218721      30070.215      0.99484732    -8221.8483    
    849200   299.16109     -516.5818       30070.215      0.99484732    -8219.3568    
    849300   298.89909      231.38765      30070.215      0.99484732    -8183.7429    
    849400   306.28844      1018.4868      30070.215      0.99484732    -8112.5768    
    849500   310.33937      270.5415       30070.215      0.99484732    -8161.6143    
    849600   302.11404     -242.87242      30070.215      0.99484732    -8226.9399    
    849700   296.79758     -288.91865      30070.215      0.99484732    -8251.6715    
    849800   286.93481      360.35086      30070.215      0.99484732    -8263.8691    
    849900   300.06127      235.33233      30070.215      0.99484732    -8210.6894    
    850000   305.7355       176.99331      30070.215      0.99484732    -8169.4718    
    850100   306.13504     -509.15382      30070.215      0.99484732    -8210.9659    
    850200   301.96164     -787.13117      30070.215      0.99484732    -8247.2528    
    850300   297.10331      41.569216      30070.215      0.99484732    -8240.1892    
    850400   307.2572      -209.94902      30070.215      0.99484732    -8218.9474    
    850500   310.2324      -383.07151      30070.215      0.99484732    -8257.781     
    850600   297.6338       494.94741      30070.215      0.99484732    -8342.6103    
    850700   293.30206      213.50355      30070.215      0.99484732    -8329.4252    
    850800   294.1485       531.12686      30070.215      0.99484732    -8273.3165    
    850900   302.73852      329.38486      30070.215      0.99484732    -8245.8613    
    851000   303.20944      318.71949      30070.215      0.99484732    -8242.4515    
    851100   292.79484     -254.86385      30070.215      0.99484732    -8276.3468    
    851200   293.37559      120.25377      30070.215      0.99484732    -8327.3053    
    851300   295.65439      395.73431      30070.215      0.99484732    -8341.5881    
    851400   290.85637      475.4138       30070.215      0.99484732    -8310.6233    
    851500   295.6948      -29.667266      30070.215      0.99484732    -8224.2671    
    851600   299.90194     -141.45523      30070.215      0.99484732    -8215.1325    
    851700   299.07766      120.35308      30070.215      0.99484732    -8234.7508    
    851800   296.50547      552.82442      30070.215      0.99484732    -8266.2281    
    851900   296.98987      447.90761      30070.215      0.99484732    -8273.1149    
    852000   293.48279      304.5445       30070.215      0.99484732    -8271.9857    
    852100   300.7247      -339.43372      30070.215      0.99484732    -8220.2452    
    852200   303.49002     -152.15515      30070.215      0.99484732    -8165.0679    
    852300   296.03641      241.16035      30070.215      0.99484732    -8181.2825    
    852400   298.34704     -142.83225      30070.215      0.99484732    -8224.8679    
    852500   291.69541     -337.34763      30070.215      0.99484732    -8304.4705    
    852600   295.02869      344.70788      30070.215      0.99484732    -8318.9136    
    852700   298.91939      540.88796      30070.215      0.99484732    -8242.2593    
    852800   305.00397      531.39553      30070.215      0.99484732    -8196.284     
    852900   298.53163     -167.02329      30070.215      0.99484732    -8220.9745    
    853000   302.46953     -334.88766      30070.215      0.99484732    -8227.7088    
    853100   300.50256     -226.61272      30070.215      0.99484732    -8250.9885    
    853200   293.51379     -317.84328      30070.215      0.99484732    -8288.4895    
    853300   295.39199     -543.13244      30070.215      0.99484732    -8342.473     
    853400   294.87046     -51.007618      30070.215      0.99484732    -8351.2146    
    853500   305.85783     -327.87031      30070.215      0.99484732    -8268.2516    
    853600   298.70286      80.65468       30070.215      0.99484732    -8235.0678    
    853700   306.17817     -140.10999      30070.215      0.99484732    -8239.8834    
    853800   300.16186     -155.14188      30070.215      0.99484732    -8256.8802    
    853900   299.03014     -533.0537       30070.215      0.99484732    -8319.9454    
    854000   295.64567     -346.58913      30070.215      0.99484732    -8371.2993    
    854100   295.84354     -188.4          30070.215      0.99484732    -8331.737     
    854200   302.48211      73.139957      30070.215      0.99484732    -8301.1227    
    854300   298.41272      265.44344      30070.215      0.99484732    -8306.4156    
    854400   301.49395     -670.05411      30070.215      0.99484732    -8323.9442    
    854500   295.60342     -54.493019      30070.215      0.99484732    -8324.4146    
    854600   307.45295     -13.678207      30070.215      0.99484732    -8260.2286    
    854700   302.58992      540.75566      30070.215      0.99484732    -8236.5066    
    854800   310.44247     -278.13627      30070.215      0.99484732    -8265.2537    
    854900   291.62007     -770.54369      30070.215      0.99484732    -8341.2172    
    855000   296.43405     -418.4626       30070.215      0.99484732    -8320.167     
    855100   295.31441      181.49209      30070.215      0.99484732    -8287.4369    
    855200   296.82032     -671.46341      30070.215      0.99484732    -8266.8465    
    855300   302.75834      608.42066      30070.215      0.99484732    -8209.6981    
    855400   304.77982      180.79962      30070.215      0.99484732    -8207.4233    
    855500   303.1238      -93.512268      30070.215      0.99484732    -8233.4867    
    855600   302.83084      429.21319      30070.215      0.99484732    -8272.2577    
    855700   293.83104     -446.26442      30070.215      0.99484732    -8313.3363    
    855800   294.43         2.9722435      30070.215      0.99484732    -8295.4106    
    855900   301.06501      553.81729      30070.215      0.99484732    -8188.1116    
    856000   302.49161      268.65507      30070.215      0.99484732    -8179.0058    
    856100   288.70043     -506.39386      30070.215      0.99484732    -8210.4455    
    856200   303.29746     -588.97223      30070.215      0.99484732    -8177.8407    
    856300   308.09113     -239.67911      30070.215      0.99484732    -8123.5717    
    856400   309.83873      143.02861      30070.215      0.99484732    -8144.8669    
    856500   298.50194     -156.80624      30070.215      0.99484732    -8185.4663    
    856600   294.7505      -154.24041      30070.215      0.99484732    -8178.3816    
    856700   302.65325      447.61494      30070.215      0.99484732    -8150.8593    
    856800   302.4973       422.06286      30070.215      0.99484732    -8146.7175    
    856900   294.56092     -228.88714      30070.215      0.99484732    -8241.0169    
    857000   290.81472      7.0521568      30070.215      0.99484732    -8267.8001    
    857100   300.6753       606.29883      30070.215      0.99484732    -8217.8243    
    857200   303.196       -61.638925      30070.215      0.99484732    -8201.2967    
    857300   302.85734     -142.9587       30070.215      0.99484732    -8244.9036    
    857400   296.61499     -191.34761      30070.215      0.99484732    -8328.1779    
    857500   288.94305     -481.98417      30070.215      0.99484732    -8332.2319    
    857600   297.96328      242.79722      30070.215      0.99484732    -8300.6931    
    857700   297.32856     -280.12536      30070.215      0.99484732    -8258.8647    
    857800   301.96885      119.95614      30070.215      0.99484732    -8221.3795    
    857900   298.18674      89.587273      30070.215      0.99484732    -8205.9053    
    858000   301.86372      24.250796      30070.215      0.99484732    -8219.1114    
    858100   300.71097     -44.591685      30070.215      0.99484732    -8241.9031    
    858200   299.50863      11.048849      30070.215      0.99484732    -8264.8127    
    858300   298.38388      753.51039      30070.215      0.99484732    -8311.9718    
    858400   297.97289     -130.05355      30070.215      0.99484732    -8352.7309    
    858500   292.11337     -17.070362      30070.215      0.99484732    -8335.2345    
    858600   298.79039     -108.03067      30070.215      0.99484732    -8242.0128    
    858700   301.09242     -401.64786      30070.215      0.99484732    -8227.6728    
    858800   295.81959      11.378262      30070.215      0.99484732    -8240.8965    
    858900   295.48999     -541.32927      30070.215      0.99484732    -8250.6188    
    859000   307.19527      447.76457      30070.215      0.99484732    -8215.3402    
    859100   299.27673     -44.11779       30070.215      0.99484732    -8187.9702    
    859200   303.27776      407.79978      30070.215      0.99484732    -8177.9005    
    859300   295.20989     -23.121068      30070.215      0.99484732    -8224.4162    
    859400   300.29218     -412.49477      30070.215      0.99484732    -8281.9379    
    859500   294.23748      205.69317      30070.215      0.99484732    -8290.4411    
    859600   308.0687       131.45413      30070.215      0.99484732    -8246.9556    
    859700   307.45243      222.15319      30070.215      0.99484732    -8177.1394    
    859800   307.76243      349.41018      30070.215      0.99484732    -8144.8044    
    859900   299.80106     -131.99215      30070.215      0.99484732    -8236.2547    
    860000   293.76305      50.698949      30070.215      0.99484732    -8280.1738    
    860100   303.96895     -378.52375      30070.215      0.99484732    -8289.4636    
    860200   297.8946      -379.55775      30070.215      0.99484732    -8296.7093    
    860300   295.69909      271.70234      30070.215      0.99484732    -8293.3643    
    860400   309.43939      449.66624      30070.215      0.99484732    -8220.7088    
    860500   300.41285     -52.764991      30070.215      0.99484732    -8196.8158    
    860600   303.382        372.74478      30070.215      0.99484732    -8198.3669    
    860700   296.18679      300.97014      30070.215      0.99484732    -8278.8154    
    860800   297.43017     -61.109289      30070.215      0.99484732    -8297.0067    
    860900   298.39758      575.16983      30070.215      0.99484732    -8275.7457    
    861000   296.78525      290.34899      30070.215      0.99484732    -8245.7481    
    861100   301.12679      229.03479      30070.215      0.99484732    -8233.1643    
    861200   301.99841     -6.5917141      30070.215      0.99484732    -8247.7448    
    861300   301.7198       298.17332      30070.215      0.99484732    -8251.8712    
    861400   295.98909      36.735961      30070.215      0.99484732    -8230.0265    
    861500   307.50216      473.98406      30070.215      0.99484732    -8149.5295    
    861600   312.21615      433.11775      30070.215      0.99484732    -8142.3168    
    861700   300.16432      594.38087      30070.215      0.99484732    -8202.1971    
    861800   298.28794     -86.319736      30070.215      0.99484732    -8217.202     
    861900   293.02869     -84.296378      30070.215      0.99484732    -8220.0495    
    862000   301.33999     -82.754158      30070.215      0.99484732    -8175.312     
    862100   313.05966      382.74422      30070.215      0.99484732    -8111.0797    
    862200   303.01058     -155.68565      30070.215      0.99484732    -8157.3475    
    862300   304.14513     -274.83927      30070.215      0.99484732    -8184.1063    
    862400   303.11073     -492.68235      30070.215      0.99484732    -8191.3444    
    862500   303.14962     -909.32387      30070.215      0.99484732    -8230.9014    
    862600   296.6323       15.54312       30070.215      0.99484732    -8291.1449    
    862700   288.12507      380.74956      30070.215      0.99484732    -8306.0027    
    862800   298.57009      932.99514      30070.215      0.99484732    -8279.0535    
    862900   302.46901      97.969657      30070.215      0.99484732    -8273.8385    
    863000   289.44079      160.90347      30070.215      0.99484732    -8260.4505    
    863100   305.7412       280.03198      30070.215      0.99484732    -8202.028     
    863200   310.413       -95.059715      30070.215      0.99484732    -8204.6697    
    863300   302.15025     -321.32301      30070.215      0.99484732    -8235.1555    
    863400   296.64962     -276.73712      30070.215      0.99484732    -8253.3185    
    863500   296.01693     -34.320904      30070.215      0.99484732    -8253.2247    
    863600   304.2668      -117.32961      30070.215      0.99484732    -8183.9572    
    863700   304.83764      165.62765      30070.215      0.99484732    -8123.7454    
    863800   305.33373     -210.4264       30070.215      0.99484732    -8148.1806    
    863900   300.09583     -492.37074      30070.215      0.99484732    -8205.0564    
    864000   301.27789     -273.49439      30070.215      0.99484732    -8239.0076    
    864100   295.95291     -88.325548      30070.215      0.99484732    -8240.1189    
    864200   308.45537     -325.65186      30070.215      0.99484732    -8230.1636    
    864300   297.85601     -189.77134      30070.215      0.99484732    -8249.3572    
    864400   303.89808     -538.77363      30070.215      0.99484732    -8264.2806    
    864500   299.24148      272.76351      30070.215      0.99484732    -8267.0438    
    864600   296.33522      209.55952      30070.215      0.99484732    -8241.7165    
    864700   296.70146     -823.4795       30070.215      0.99484732    -8199.6944    
    864800   298.02011     -96.601574      30070.215      0.99484732    -8140.2384    
    864900   299.13653      326.13657      30070.215      0.99484732    -8134.6984    
    865000   299.6238       233.26395      30070.215      0.99484732    -8163.0809    
    865100   297.93887     -296.70275      30070.215      0.99484732    -8196.4601    
    865200   294.49665     -462.53387      30070.215      0.99484732    -8232.0729    
    865300   287.85213     -357.87645      30070.215      0.99484732    -8257.7558    
    865400   302.50795     -91.395037      30070.215      0.99484732    -8259.9908    
    865500   295.24168      43.060845      30070.215      0.99484732    -8262.3403    
    865600   303.39523      59.777554      30070.215      0.99484732    -8220.6822    
    865700   306.54186      688.53073      30070.215      0.99484732    -8181.6341    
    865800   304.12581     -9.5293568      30070.215      0.99484732    -8226.181     
    865900   303.65877      55.789722      30070.215      0.99484732    -8300.0678    
    866000   292.58129      223.76681      30070.215      0.99484732    -8316.6901    
    866100   298.2624       177.80676      30070.215      0.99484732    -8310.416     
    866200   295.89961     -174.04089      30070.215      0.99484732    -8294.7972    
    866300   306.81847      142.67168      30070.215      0.99484732    -8206.9614    
    866400   302.05649      118.1597       30070.215      0.99484732    -8199.7394    
    866500   305.22888     -466.66809      30070.215      0.99484732    -8232.1421    
    866600   297.0941       15.162591      30070.215      0.99484732    -8281.3978    
    866700   291.48435     -107.28457      30070.215      0.99484732    -8322.4019    
    866800   298.19765      325.40017      30070.215      0.99484732    -8321.5426    
    866900   293.2746      -561.31481      30070.215      0.99484732    -8270.5767    
    867000   312.11896     -506.42758      30070.215      0.99484732    -8211.5673    
    867100   293.34291      177.01013      30070.215      0.99484732    -8198.2282    
    867200   294.19154      8.3464168      30070.215      0.99484732    -8207.8733    
    867300   292.69157      117.79823      30070.215      0.99484732    -8251.0309    
    867400   287.11591     -69.013361      30070.215      0.99484732    -8273.9314    
    867500   297.32325      22.577046      30070.215      0.99484732    -8224.7067    
    867600   308.24968     -224.53439      30070.215      0.99484732    -8156.531     
    867700   305.68714     -311.57842      30070.215      0.99484732    -8185.2805    
    867800   298.90718     -84.222202      30070.215      0.99484732    -8234.8042    
    867900   298.5843      -858.05858      30070.215      0.99484732    -8239.4372    
    868000   301.66951      412.82645      30070.215      0.99484732    -8214.7096    
    868100   300.97454      727.55873      30070.215      0.99484732    -8139.0124    
    868200   307.54709      408.71756      30070.215      0.99484732    -8083.8622    
    868300   295.89722      580.03682      30070.215      0.99484732    -8109.2173    
    868400   299.97298     -107.96906      30070.215      0.99484732    -8137.4455    
    868500   297.16836     -541.30919      30070.215      0.99484732    -8181.1634    
    868600   302.80986      70.235299      30070.215      0.99484732    -8217.392     
    868700   301.20378      857.54341      30070.215      0.99484732    -8243.9359    
    868800   296.65617     -141.84733      30070.215      0.99484732    -8278.9493    
    868900   296.18524     -245.35117      30070.215      0.99484732    -8273.6654    
    869000   295.87411     -318.80768      30070.215      0.99484732    -8249.4406    
    869100   303.17308      147.74668      30070.215      0.99484732    -8207.1595    
    869200   302.50614     -581.90773      30070.215      0.99484732    -8189.3884    
    869300   302.70817     -641.93876      30070.215      0.99484732    -8215.8129    
    869400   295.33196     -671.50888      30070.215      0.99484732    -8292.7341    
    869500   298.94651      8.6489173      30070.215      0.99484732    -8296.4871    
    869600   300.54012     -266.12841      30070.215      0.99484732    -8233.5612    
    869700   297.95441      395.97509      30070.215      0.99484732    -8214.3119    
    869800   296.62181      328.91813      30070.215      0.99484732    -8231.1927    
    869900   297.80308     -491.72035      30070.215      0.99484732    -8262.5896    
    870000   295.14006      176.55396      30070.215      0.99484732    -8315.3622    
    870100   294.81719      63.117743      30070.215      0.99484732    -8377.1589    
    870200   291.05796      111.56803      30070.215      0.99484732    -8343.3178    
    870300   301.28246      130.08028      30070.215      0.99484732    -8262.1432    
    870400   306.49015     -377.39738      30070.215      0.99484732    -8230.3462    
    870500   310.16241     -403.89633      30070.215      0.99484732    -8194.8405    
    870600   305.27201      354.5612       30070.215      0.99484732    -8218.1834    
    870700   299.06465     -286.20716      30070.215      0.99484732    -8268.4652    
    870800   295.78965      94.369386      30070.215      0.99484732    -8284.3272    
    870900   291.58794     -394.75294      30070.215      0.99484732    -8302.5439    
    871000   300.0186      -65.331022      30070.215      0.99484732    -8288.4978    
    871100   298.39407     -132.96927      30070.215      0.99484732    -8268.4807    
    871200   299.95372     -207.16667      30070.215      0.99484732    -8221.3425    
    871300   306.17987      247.06859      30070.215      0.99484732    -8181.308     
    871400   306.08349     -410.37106      30070.215      0.99484732    -8248.5074    
    871500   302.38834     -499.99396      30070.215      0.99484732    -8303.3068    
    871600   301.73432     -16.634056      30070.215      0.99484732    -8319.6557    
    871700   301.01026     -99.264038      30070.215      0.99484732    -8344.0487    
    871800   299.53827      171.6297       30070.215      0.99484732    -8344.6964    
    871900   298.71366     -472.05038      30070.215      0.99484732    -8338.4554    
    872000   299.06774     -81.720447      30070.215      0.99484732    -8311.0666    
    872100   300.19843      136.41087      30070.215      0.99484732    -8245.6481    
    872200   305.89491     -64.091539      30070.215      0.99484732    -8206.1388    
    872300   297.10449      108.80361      30070.215      0.99484732    -8220.5103    
    872400   303.57405     -707.06334      30070.215      0.99484732    -8247.0103    
    872500   290.77871     -674.78909      30070.215      0.99484732    -8320.7518    
    872600   294.12461     -610.60085      30070.215      0.99484732    -8285.1995    
    872700   297.55007     -337.89478      30070.215      0.99484732    -8232.5537    
    872800   295.47131      520.44706      30070.215      0.99484732    -8218.2616    
    872900   299.49227      309.00979      30070.215      0.99484732    -8210.3879    
    873000   300.99869      340.70915      30070.215      0.99484732    -8199.7687    
    873100   294.97737     -303.81331      30070.215      0.99484732    -8229.6942    
    873200   292.622       -415.27731      30070.215      0.99484732    -8279.4258    
    873300   293.45469      284.55686      30070.215      0.99484732    -8284.8037    
    873400   299.90628      1133.331       30070.215      0.99484732    -8240.8864    
    873500   296.92223      189.1054       30070.215      0.99484732    -8195.3645    
    873600   309.92935      402.92769      30070.215      0.99484732    -8129.5667    
    873700   306.69478     -311.54448      30070.215      0.99484732    -8141.5417    
    873800   295.25033      259.97666      30070.215      0.99484732    -8228.0961    
    873900   288.10595      191.28477      30070.215      0.99484732    -8280.6986    
    874000   299.47736     -169.41482      30070.215      0.99484732    -8259.4969    
    874100   299.88794      497.13293      30070.215      0.99484732    -8209.7322    
    874200   298.3214       144.48656      30070.215      0.99484732    -8180.2012    
    874300   299.98023     -326.69457      30070.215      0.99484732    -8178.5184    
    874400   306.69404      323.23487      30070.215      0.99484732    -8167.802     
    874500   297.85518      522.44261      30070.215      0.99484732    -8222.3668    
    874600   297.87086     -18.483865      30070.215      0.99484732    -8270.4485    
    874700   298.69705      561.1463       30070.215      0.99484732    -8265.8855    
    874800   297.13908      36.684456      30070.215      0.99484732    -8227.0236    
    874900   306.40568     -92.811777      30070.215      0.99484732    -8161.0528    
    875000   311.61857      425.68777      30070.215      0.99484732    -8158.9835    
    875100   289.13535      143.17938      30070.215      0.99484732    -8244.3332    
    875200   297.39304      335.57555      30070.215      0.99484732    -8250.3429    
    875300   289.24809      406.74213      30070.215      0.99484732    -8249.4614    
    875400   306.22249     -166.37946      30070.215      0.99484732    -8229.1492    
    875500   300.55039      636.955        30070.215      0.99484732    -8184.843     
    875600   306.18713      241.72526      30070.215      0.99484732    -8154.5497    
    875700   297.04822      729.39884      30070.215      0.99484732    -8209.0658    
    875800   299.04103      156.88335      30070.215      0.99484732    -8274.5272    
    875900   300.77696      38.582708      30070.215      0.99484732    -8279.6147    
    876000   303.6033      -52.152381      30070.215      0.99484732    -8272.9942    
    876100   303.31565     -460.84092      30070.215      0.99484732    -8271.1742    
    876200   296.14459     -483.01722      30070.215      0.99484732    -8272.0929    
    876300   300.87647      117.33308      30070.215      0.99484732    -8233.713     
    876400   300.26714     -158.96555      30070.215      0.99484732    -8231.6085    
    876500   302.48595     -94.398891      30070.215      0.99484732    -8295.009     
    876600   290.54775     -435.28638      30070.215      0.99484732    -8340.5003    
    876700   293.67016     -480.30953      30070.215      0.99484732    -8335.7241    
    876800   298.76257     -483.61218      30070.215      0.99484732    -8300.1232    
    876900   298.02468     -56.691711      30070.215      0.99484732    -8279.0827    
    877000   301.86175     -294.18933      30070.215      0.99484732    -8268.509     
    877100   299.69253     -360.8112       30070.215      0.99484732    -8312.7517    
    877200   296.5451       95.66687       30070.215      0.99484732    -8378.8367    
    877300   292.61559     -315.22457      30070.215      0.99484732    -8379.0135    
    877400   288.49666     -292.7584       30070.215      0.99484732    -8342.6702    
    877500   301.65032      216.16681      30070.215      0.99484732    -8298.7403    
    877600   306.87732      393.21313      30070.215      0.99484732    -8274.8587    
    877700   296.94597      69.654008      30070.215      0.99484732    -8298.1616    
    877800   295.87342     -275.44824      30070.215      0.99484732    -8359.2279    
    877900   297.79264     -345.06864      30070.215      0.99484732    -8364.5532    
    878000   299.342       -245.16647      30070.215      0.99484732    -8258.1427    
    878100   297.79626     -52.272147      30070.215      0.99484732    -8216.4807    
    878200   300.23131     -361.7992       30070.215      0.99484732    -8175.1135    
    878300   305.8876       138.69782      30070.215      0.99484732    -8150.3904    
    878400   300.56421      406.90448      30070.215      0.99484732    -8198.2042    
    878500   293.58463     -4.6924738      30070.215      0.99484732    -8260.7352    
    878600   300.21689     -273.74903      30070.215      0.99484732    -8270.8906    
    878700   302.28879     -637.87216      30070.215      0.99484732    -8241.3321    
    878800   308.01348     -183.4631       30070.215      0.99484732    -8191.1335    
    878900   307.63837      447.77026      30070.215      0.99484732    -8125.3183    
    879000   310.42693      160.06896      30070.215      0.99484732    -8128.5445    
    879100   295.37547     -149.95841      30070.215      0.99484732    -8215.4472    
    879200   302.49068     -322.58843      30070.215      0.99484732    -8217.9625    
    879300   306.72854      132.40785      30070.215      0.99484732    -8235.7728    
    879400   295.61751      103.44508      30070.215      0.99484732    -8305.9424    
    879500   305.17313     -416.42466      30070.215      0.99484732    -8310.957     
    879600   303.91936     -85.432002      30070.215      0.99484732    -8320.1114    
    879700   299.85707     -247.81267      30070.215      0.99484732    -8365.1573    
    879800   286.85812     -708.4765       30070.215      0.99484732    -8448.6177    
    879900   294.5683      -521.71718      30070.215      0.99484732    -8427.3678    
    880000   303.77939      59.559608      30070.215      0.99484732    -8329.1838    
    880100   300.68833     -392.85757      30070.215      0.99484732    -8330.8835    
    880200   298.78264     -171.25036      30070.215      0.99484732    -8340.7748    
    880300   305.46292      706.6457       30070.215      0.99484732    -8320.4224    
    880400   295.30532      218.56831      30070.215      0.99484732    -8269.481     
    880500   309.37702      258.20133      30070.215      0.99484732    -8208.407     
    880600   293.78868      272.2884       30070.215      0.99484732    -8208.1402    
    880700   304.56621     -193.79318      30070.215      0.99484732    -8223.7803    
    880800   306.00699     -239.14764      30070.215      0.99484732    -8277.7499    
    880900   293.15335      477.8428       30070.215      0.99484732    -8297.6235    
    881000   293.8892       47.481493      30070.215      0.99484732    -8285.0337    
    881100   296.20612     -59.774195      30070.215      0.99484732    -8223.5457    
    881200   297.74481      396.19267      30070.215      0.99484732    -8168.3508    
    881300   301.84934      71.941509      30070.215      0.99484732    -8155.2646    
    881400   303.10912     -681.53853      30070.215      0.99484732    -8176.705     
    881500   297.96126     -169.22872      30070.215      0.99484732    -8262.7121    
    881600   299.59978     -319.8073       30070.215      0.99484732    -8293.8733    
    881700   293.75445     -510.22406      30070.215      0.99484732    -8298.4631    
    881800   305.46802      229.66283      30070.215      0.99484732    -8270.8038    
    881900   307.30173      175.79497      30070.215      0.99484732    -8208.2967    
    882000   308.8063       785.04125      30070.215      0.99484732    -8147.3261    
    882100   291.96118     -237.99304      30070.215      0.99484732    -8208.9992    
    882200   297.69811     -229.47335      30070.215      0.99484732    -8271.5862    
    882300   290.83839     -199.63275      30070.215      0.99484732    -8274.8436    
    882400   298.0734       9.5523321      30070.215      0.99484732    -8213.7006    
    882500   300.63821      582.29948      30070.215      0.99484732    -8174.1006    
    882600   306.33026      335.11881      30070.215      0.99484732    -8170.3819    
    882700   299.42371     -507.37675      30070.215      0.99484732    -8206.7241    
    882800   294.16134     -338.61528      30070.215      0.99484732    -8275.1806    
    882900   286.96111      105.82989      30070.215      0.99484732    -8338.9006    
    883000   297.24804     -535.80556      30070.215      0.99484732    -8326.8174    
    883100   300.23945     -643.67012      30070.215      0.99484732    -8282.8331    
    883200   300.51237     -22.780523      30070.215      0.99484732    -8252.9696    
    883300   301.314        236.08738      30070.215      0.99484732    -8240.2577    
    883400   298.98069      470.85204      30070.215      0.99484732    -8240.445     
    883500   304.84405     -134.4885       30070.215      0.99484732    -8248.6844    
    883600   299.05231      353.65119      30070.215      0.99484732    -8291.754     
    883700   295.16966      233.74011      30070.215      0.99484732    -8345.3734    
    883800   289.21998     -280.75862      30070.215      0.99484732    -8345.515     
    883900   294.55943     -630.83187      30070.215      0.99484732    -8264.4218    
    884000   301.68198     -570.57925      30070.215      0.99484732    -8228.6639    
    884100   315.11966     -348.04525      30070.215      0.99484732    -8201.3941    
    884200   300.66543      417.58943      30070.215      0.99484732    -8229.9816    
    884300   292.36537      771.85854      30070.215      0.99484732    -8301.3112    
    884400   303.50457     -817.9602       30070.215      0.99484732    -8324.5085    
    884500   299.00053      75.85547       30070.215      0.99484732    -8307.5491    
    884600   295.74155      290.31263      30070.215      0.99484732    -8284.5563    
    884700   301.47423     -184.05849      30070.215      0.99484732    -8265.3718    
    884800   300.75893      177.41048      30070.215      0.99484732    -8260.5245    
    884900   303.83444      384.83706      30070.215      0.99484732    -8288.9373    
    885000   297.45535     -203.85249      30070.215      0.99484732    -8316.5549    
    885100   295.94739      130.34368      30070.215      0.99484732    -8305.5245    
    885200   303.52287     -307.12046      30070.215      0.99484732    -8261.9276    
    885300   309.2785      -223.93303      30070.215      0.99484732    -8215.534     
    885400   305.90929      83.041416      30070.215      0.99484732    -8233.3835    
    885500   300.13211     -403.72478      30070.215      0.99484732    -8311.4767    
    885600   296.55459      95.687586      30070.215      0.99484732    -8312.2063    
    885700   304.3712       802.76094      30070.215      0.99484732    -8275.9609    
    885800   296.13089      657.84114      30070.215      0.99484732    -8247.6118    
    885900   286.30359      420.2318       30070.215      0.99484732    -8229.7897    
    886000   313.32849     -67.202754      30070.215      0.99484732    -8157.4438    
    886100   305.89869      57.848037      30070.215      0.99484732    -8174.2594    
    886200   298.22432     -133.90979      30070.215      0.99484732    -8241.765     
    886300   300.49383     -134.41087      30070.215      0.99484732    -8258.8575    
    886400   303.39618     -375.95256      30070.215      0.99484732    -8257.9084    
    886500   297.48393     -112.51127      30070.215      0.99484732    -8235.1288    
    886600   305.538       -96.699697      30070.215      0.99484732    -8144.6886    
    886700   307.94742     -85.900962      30070.215      0.99484732    -8121.8311    
    886800   301.58142      38.541407      30070.215      0.99484732    -8148.9734    
    886900   295.54094      87.72652       30070.215      0.99484732    -8197.8158    
    887000   298.41937      240.63964      30070.215      0.99484732    -8218.0665    
    887100   306.39829      157.67224      30070.215      0.99484732    -8229.3018    
    887200   291.86981      138.46721      30070.215      0.99484732    -8336.9668    
    887300   293.45524      336.62844      30070.215      0.99484732    -8341.5339    
    887400   296.27161      724.73627      30070.215      0.99484732    -8302.2305    
    887500   302.29284     -288.31063      30070.215      0.99484732    -8274.9091    
    887600   301.99167     -157.85851      30070.215      0.99484732    -8221.8542    
    887700   310.18299      672.9697       30070.215      0.99484732    -8162.197     
    887800   306.09274     -182.44568      30070.215      0.99484732    -8197.9427    
    887900   300.49345     -55.184634      30070.215      0.99484732    -8278.2164    
    888000   297.35021      448.78994      30070.215      0.99484732    -8287.3559    
    888100   299.79827      256.25797      30070.215      0.99484732    -8290.2982    
    888200   299.41149      665.46154      30070.215      0.99484732    -8290.2411    
    888300   302.61848      624.58055      30070.215      0.99484732    -8297.8421    
    888400   297.2309       197.60692      30070.215      0.99484732    -8358.0444    
    888500   294.46314      525.90062      30070.215      0.99484732    -8385.3543    
    888600   301.7435       396.71465      30070.215      0.99484732    -8341.3553    
    888700   298.22361      462.73786      30070.215      0.99484732    -8266.4586    
    888800   303.13954     -285.6967       30070.215      0.99484732    -8259.0276    
    888900   304.45643     -353.21011      30070.215      0.99484732    -8282.2497    
    889000   289.96466     -237.04597      30070.215      0.99484732    -8307.7733    
    889100   298.53641      115.32713      30070.215      0.99484732    -8255.7341    
    889200   319.52804      264.68012      30070.215      0.99484732    -8201.9458    
    889300   300.02094      217.96039      30070.215      0.99484732    -8259.9965    
    889400   301.52264      21.82803       30070.215      0.99484732    -8279.6355    
    889500   303.26666     -512.01611      30070.215      0.99484732    -8305.0818    
    889600   290.70691     -241.85915      30070.215      0.99484732    -8361.0219    
    889700   288.80515     -739.04336      30070.215      0.99484732    -8402.8622    
    889800   297.11151     -500.57336      30070.215      0.99484732    -8337.3936    
    889900   303.12809      198.21983      30070.215      0.99484732    -8286.3209    
    890000   302.14533      20.104733      30070.215      0.99484732    -8283.3313    
    890100   301.03308      1025.7615      30070.215      0.99484732    -8290.2891    
    890200   297.44971      228.90566      30070.215      0.99484732    -8360.4591    
    890300   293.0752       103.56242      30070.215      0.99484732    -8385.8188    
    890400   297.08415      412.29756      30070.215      0.99484732    -8357.0269    
    890500   294.6708       121.73781      30070.215      0.99484732    -8332.7844    
    890600   297.81267      323.5052       30070.215      0.99484732    -8299.4373    
    890700   306.13971     -56.250822      30070.215      0.99484732    -8286.5296    
    890800   295.59011      43.772673      30070.215      0.99484732    -8276.8165    
    890900   316.79526      107.51102      30070.215      0.99484732    -8194.4748    
    891000   309.83909     -266.96147      30070.215      0.99484732    -8181.4921    
    891100   303.78537     -813.1721       30070.215      0.99484732    -8228.4404    
    891200   292.37949      542.59421      30070.215      0.99484732    -8236.2736    
    891300   303.23126     -13.73825       30070.215      0.99484732    -8245.9058    
    891400   295.04572     -298.95494      30070.215      0.99484732    -8269.1227    
    891500   302.04383     -84.846892      30070.215      0.99484732    -8244.5484    
    891600   305.88566      573.8194       30070.215      0.99484732    -8192.8911    
    891700   297.63004     -110.22609      30070.215      0.99484732    -8224.3294    
    891800   300.48032      9.5808437      30070.215      0.99484732    -8269.795     
    891900   293.17389     -614.50481      30070.215      0.99484732    -8332.7284    
    892000   297.90105     -399.51039      30070.215      0.99484732    -8334.4364    
    892100   304.96435     -172.0075       30070.215      0.99484732    -8232.6886    
    892200   312.51768     -179.50399      30070.215      0.99484732    -8227.2088    
    892300   297.32788      192.39416      30070.215      0.99484732    -8301.7313    
    892400   295.76124      79.525039      30070.215      0.99484732    -8331.2562    
    892500   298.42896     -290.39387      30070.215      0.99484732    -8330.8636    
    892600   304.67186      433.68254      30070.215      0.99484732    -8277.2866    
    892700   300.22186     -367.20469      30070.215      0.99484732    -8238.742     
    892800   301.19469      432.49217      30070.215      0.99484732    -8197.3947    
    892900   309.83755      194.74513      30070.215      0.99484732    -8126.7007    
    893000   307.00401      304.55977      30070.215      0.99484732    -8122.5881    
    893100   298.50453     -303.70139      30070.215      0.99484732    -8215.6806    
    893200   293.95735     -543.7814       30070.215      0.99484732    -8242.0909    
    893300   305.56714     -53.592541      30070.215      0.99484732    -8229.3194    
    893400   303.06527      82.918732      30070.215      0.99484732    -8242.1635    
    893500   296.28683      129.72897      30070.215      0.99484732    -8288.1507    
    893600   289.20334     -151.30846      30070.215      0.99484732    -8323.112     
    893700   297.81299      332.11453      30070.215      0.99484732    -8254.8772    
    893800   303.72774     -397.49499      30070.215      0.99484732    -8203.8284    
    893900   293.75267     -427.34336      30070.215      0.99484732    -8178.7466    
    894000   298.5911      -267.52681      30070.215      0.99484732    -8139.896     
    894100   307.20326     -210.09542      30070.215      0.99484732    -8106.2621    
    894200   310.69974      266.03474      30070.215      0.99484732    -8103.9847    
    894300   295.24206      6.3716829      30070.215      0.99484732    -8189.9088    
    894400   299.6421      -135.03906      30070.215      0.99484732    -8226.8217    
    894500   296.89006     -397.87777      30070.215      0.99484732    -8236.3621    
    894600   297.84788     -267.74988      30070.215      0.99484732    -8207.9858    
    894700   311.91063     -45.059324      30070.215      0.99484732    -8134.5161    
    894800   311.0001       255.49693      30070.215      0.99484732    -8144.5461    
    894900   301.12665     -586.87022      30070.215      0.99484732    -8189.7292    
    895000   300.98949     -4.8392552      30070.215      0.99484732    -8181.9428    
    895100   300.12959      629.10403      30070.215      0.99484732    -8196.1026    
    895200   299.50072      776.72471      30070.215      0.99484732    -8239.4025    
    895300   303.84306      427.91672      30070.215      0.99484732    -8279.0629    
    895400   291.59348     -138.19657      30070.215      0.99484732    -8379.7773    
    895500   292.19303     -233.8961       30070.215      0.99484732    -8364.1093    
    895600   300.08705      260.00572      30070.215      0.99484732    -8309.7616    
    895700   294.411        790.17876      30070.215      0.99484732    -8293.6041    
    895800   295.573        37.024232      30070.215      0.99484732    -8276.8424    
    895900   306.89919      82.531914      30070.215      0.99484732    -8207.8553    
    896000   307.90514     -272.45211      30070.215      0.99484732    -8167.8628    
    896100   302.1173       14.173389      30070.215      0.99484732    -8177.4893    
    896200   290.70547      165.10701      30070.215      0.99484732    -8225.1225    
    896300   293.51489     -384.02382      30070.215      0.99484732    -8308.7252    
    896400   296.57851      59.153661      30070.215      0.99484732    -8355.2558    
    896500   303.42334     -2.2507446      30070.215      0.99484732    -8364.0634    
    896600   297.27964     -86.120075      30070.215      0.99484732    -8349.4626    
    896700   299.33469      494.44599      30070.215      0.99484732    -8319.1398    
    896800   296.30102      520.04477      30070.215      0.99484732    -8250.8404    
    896900   314.17642      430.82645      30070.215      0.99484732    -8162.8146    
    897000   301.56294      304.24897      30070.215      0.99484732    -8227.4823    
    897100   297.74103     -110.6957       30070.215      0.99484732    -8282.1414    
    897200   303.79683     -487.19857      30070.215      0.99484732    -8320.9649    
    897300   294.36789     -836.89455      30070.215      0.99484732    -8346.8291    
    897400   295.53301     -532.05107      30070.215      0.99484732    -8290.315     
    897500   303.11671      212.60751      30070.215      0.99484732    -8228.5768    
    897600   304.10029     -468.89227      30070.215      0.99484732    -8228.0707    
    897700   298.2261      -479.35332      30070.215      0.99484732    -8267.6843    
    897800   298.69082     -684.02742      30070.215      0.99484732    -8321.813     
    897900   299.71984     -440.65376      30070.215      0.99484732    -8337.3171    
    898000   302.33023     -202.96564      30070.215      0.99484732    -8233.7175    
    898100   303.26081     -146.12683      30070.215      0.99484732    -8207.3674    
    898200   292.06887      92.115658      30070.215      0.99484732    -8230.0423    
    898300   291.49971      177.43163      30070.215      0.99484732    -8275.5505    
    898400   304.1152      -519.83894      30070.215      0.99484732    -8322.1381    
    898500   293.83351     -360.64604      30070.215      0.99484732    -8348.4448    
    898600   305.35911     -250.72796      30070.215      0.99484732    -8248.6817    
    898700   304.04925     -157.83885      30070.215      0.99484732    -8222.464     
    898800   299.05187      211.36298      30070.215      0.99484732    -8261.5203    
    898900   300.52105     -99.212254      30070.215      0.99484732    -8308.0051    
    899000   288.93948     -443.70641      30070.215      0.99484732    -8339.9714    
    899100   301.7495       526.38852      30070.215      0.99484732    -8269.7593    
    899200   306.15949      82.533383      30070.215      0.99484732    -8222.3849    
    899300   300.28468     -331.69453      30070.215      0.99484732    -8267.805     
    899400   290.28073      439.01443      30070.215      0.99484732    -8297.5143    
    899500   297.90787     -412.91065      30070.215      0.99484732    -8296.0752    
    899600   304.02878     -159.56048      30070.215      0.99484732    -8241.9997    
    899700   314.2858       365.50413      30070.215      0.99484732    -8168.1848    
    899800   310.83141      673.77513      30070.215      0.99484732    -8201.9875    
    899900   305.24851      713.63872      30070.215      0.99484732    -8274.3592    
    900000   294.22662      152.09972      30070.215      0.99484732    -8311.6479    
    900100   291.58458      279.54231      30070.215      0.99484732    -8313.1803    
    900200   303.41949     -312.02772      30070.215      0.99484732    -8252.7036    
    900300   310.74237      330.46938      30070.215      0.99484732    -8212.3278    
    900400   298.06186      162.52114      30070.215      0.99484732    -8242.2608    
    900500   304.31229      739.5895       30070.215      0.99484732    -8256.434     
    900600   298.96135      288.79366      30070.215      0.99484732    -8289.1724    
    900700   292.48737      127.07491      30070.215      0.99484732    -8307.0285    
    900800   298.08505      346.74474      30070.215      0.99484732    -8282.2093    
    900900   299.86264      143.45664      30070.215      0.99484732    -8234.2676    
    901000   312.20603      291.84256      30070.215      0.99484732    -8139.1083    
    901100   306.51499      97.249584      30070.215      0.99484732    -8173.8799    
    901200   303.02856      274.36784      30070.215      0.99484732    -8220.1981    
    901300   304.85049     -579.86956      30070.215      0.99484732    -8260.0804    
    901400   293.80642      65.778908      30070.215      0.99484732    -8294.9413    
    901500   290.56123     -389.88097      30070.215      0.99484732    -8286.5047    
    901600   310.74359     -310.75228      30070.215      0.99484732    -8180.0521    
    901700   312.72202     -46.161945      30070.215      0.99484732    -8175.2771    
    901800   295.05377      51.482524      30070.215      0.99484732    -8240.1569    
    901900   300.25357     -88.542093      30070.215      0.99484732    -8266.7604    
    902000   295.2517      -218.62958      30070.215      0.99484732    -8301.4462    
    902100   295.90088      335.27636      30070.215      0.99484732    -8292.7957    
    902200   295.2367       34.079083      30070.215      0.99484732    -8213.2467    
    902300   303.76431      289.37135      30070.215      0.99484732    -8178.8188    
    902400   301.5921       481.95667      30070.215      0.99484732    -8188.3474    
    902500   303.02452      179.53641      30070.215      0.99484732    -8263.0831    
    902600   285.73568     -190.4255       30070.215      0.99484732    -8305.2771    
    902700   302.41168     -155.71869      30070.215      0.99484732    -8253.0669    
    902800   308.08471      67.798762      30070.215      0.99484732    -8241.465     
    902900   295.78546      294.39108      30070.215      0.99484732    -8278.4154    
    903000   288.14807     -338.22171      30070.215      0.99484732    -8337.5435    
    903100   293.53663     -126.34578      30070.215      0.99484732    -8349.8253    
    903200   303.43498     -154.11395      30070.215      0.99484732    -8255.9764    
    903300   298.11834      174.84827      30070.215      0.99484732    -8224.7501    
    903400   298.98679      383.61053      30070.215      0.99484732    -8217.8723    
    903500   308.07846      83.884883      30070.215      0.99484732    -8198.9297    
    903600   308.70037     -32.842517      30070.215      0.99484732    -8170.5948    
    903700   301.03764      412.62992      30070.215      0.99484732    -8220.5095    
    903800   297.71187      144.84834      30070.215      0.99484732    -8277.0783    
    903900   298.97901     -176.90593      30070.215      0.99484732    -8271.6269    
    904000   297.20906     -115.17021      30070.215      0.99484732    -8216.6434    
    904100   309.1603       3.1476945      30070.215      0.99484732    -8171.3439    
    904200   294.7344       250.98755      30070.215      0.99484732    -8193.3732    
    904300   305.07456      438.99664      30070.215      0.99484732    -8203.6883    
    904400   297.29786      49.541448      30070.215      0.99484732    -8239.1993    
    904500   308.80735     -309.52678      30070.215      0.99484732    -8261.0244    
    904600   296.54948     -475.4778       30070.215      0.99484732    -8339.8414    
    904700   288.20596     -216.4182       30070.215      0.99484732    -8351.8995    
    904800   294.68051     -403.24445      30070.215      0.99484732    -8304.027     
    904900   299.92871     -471.69287      30070.215      0.99484732    -8279.7785    
    905000   300.4629      -407.25284      30070.215      0.99484732    -8288.2384    
    905100   302.175        428.81916      30070.215      0.99484732    -8288.6411    
    905200   301.43539      204.61036      30070.215      0.99484732    -8246.1246    
    905300   303.7196       302.59807      30070.215      0.99484732    -8226.9333    
    905400   296.13528     -357.6189       30070.215      0.99484732    -8276.1081    
    905500   290.97811     -43.765665      30070.215      0.99484732    -8315.1006    
    905600   299.85503     -27.954907      30070.215      0.99484732    -8299.9071    
    905700   296.85289     -350.41978      30070.215      0.99484732    -8212.9605    
    905800   305.41754     -179.01676      30070.215      0.99484732    -8173.9602    
    905900   307.03324     -24.762522      30070.215      0.99484732    -8201.3179    
    906000   299.95058     -242.27609      30070.215      0.99484732    -8260.4098    
    906100   302.31523     -6.2844203      30070.215      0.99484732    -8279.3063    
    906200   300.03616     -433.63039      30070.215      0.99484732    -8276.143     
    906300   296.91488     -416.31459      30070.215      0.99484732    -8242.3751    
    906400   307.79473     -215.54456      30070.215      0.99484732    -8164.2834    
    906500   302.1782      -79.391655      30070.215      0.99484732    -8122.5104    
    906600   302.75252      68.888763      30070.215      0.99484732    -8142.5008    
    906700   301.87816     -215.01605      30070.215      0.99484732    -8179.3942    
    906800   302.06605     -385.37183      30070.215      0.99484732    -8226.1186    
    906900   301.33217     -201.42529      30070.215      0.99484732    -8260.3771    
    907000   297.1769      -11.262776      30070.215      0.99484732    -8270.9699    
    907100   300.78813     -912.9394       30070.215      0.99484732    -8268.9159    
    907200   307.67702     -318.50107      30070.215      0.99484732    -8204.6636    
    907300   305.99739      332.85448      30070.215      0.99484732    -8167.4966    
    907400   302.53502      396.32719      30070.215      0.99484732    -8214.5042    
    907500   300.65765      244.11465      30070.215      0.99484732    -8272.9897    
    907600   297.25258     -442.183        30070.215      0.99484732    -8305.053     
    907700   301.29898     -600.44122      30070.215      0.99484732    -8301.6101    
    907800   300.64818      867.21118      30070.215      0.99484732    -8306.4959    
    907900   285.0413      -309.55701      30070.215      0.99484732    -8384.7121    
    908000   294.25852      194.84993      30070.215      0.99484732    -8355.2343    
    908100   302.1846      -31.27012       30070.215      0.99484732    -8286.5174    
    908200   301.69043     -116.54432      30070.215      0.99484732    -8282.524     
    908300   299.69056      224.00457      30070.215      0.99484732    -8300.2031    
    908400   290.23456      72.663907      30070.215      0.99484732    -8341.044     
    908500   302.79939      542.6007       30070.215      0.99484732    -8352.4416    
    908600   298.74975     -30.067874      30070.215      0.99484732    -8367.8217    
    908700   301.51363     -356.89567      30070.215      0.99484732    -8329.8353    
    908800   304.40133     -73.642317      30070.215      0.99484732    -8279.4282    
    908900   298.68759     -335.25302      30070.215      0.99484732    -8254.3779    
    909000   310.51419     -117.51782      30070.215      0.99484732    -8197.4914    
    909100   300.78909     -63.162817      30070.215      0.99484732    -8178.2238    
    909200   301.09265      82.213872      30070.215      0.99484732    -8233.5111    
    909300   302.27676     -209.06802      30070.215      0.99484732    -8279.5493    
    909400   296.68421      68.294109      30070.215      0.99484732    -8292.8981    
    909500   293.09444      363.76729      30070.215      0.99484732    -8286.6293    
    909600   297.25524      370.42006      30070.215      0.99484732    -8212.1895    
    909700   316.31603      628.36447      30070.215      0.99484732    -8167.8023    
    909800   303.16665     -129.5575       30070.215      0.99484732    -8213.8447    
    909900   300.87893     -598.01342      30070.215      0.99484732    -8240.7777    
    910000   302.94169     -232.04773      30070.215      0.99484732    -8242.8353    
    910100   302.3905       385.69886      30070.215      0.99484732    -8253.7204    
    910200   295.30687     -154.16386      30070.215      0.99484732    -8308.8173    
    910300   301.52464      123.09654      30070.215      0.99484732    -8372.6791    
    910400   290.64876      514.62759      30070.215      0.99484732    -8359.4117    
    910500   299.74068      1046.8639      30070.215      0.99484732    -8299.3687    
    910600   298.58122      185.45402      30070.215      0.99484732    -8282.9296    
    910700   300.80923     -216.97815      30070.215      0.99484732    -8261.5102    
    910800   302.48257      514.8512       30070.215      0.99484732    -8247.7131    
    910900   296.93195      490.65314      30070.215      0.99484732    -8273.5737    
    911000   293.15397      270.10716      30070.215      0.99484732    -8322.5233    
    911100   294.17793     -134.9362       30070.215      0.99484732    -8404.2894    
    911200   288.73665      290.05889      30070.215      0.99484732    -8377.0519    
    911300   297.28539      74.238653      30070.215      0.99484732    -8313.4661    
    911400   303.1463      -210.6463       30070.215      0.99484732    -8289.895     
    911500   312.29654      427.61774      30070.215      0.99484732    -8256.1016    
    911600   289.72729      305.9118       30070.215      0.99484732    -8299.0938    
    911700   288.75379      169.64559      30070.215      0.99484732    -8365.8825    
    911800   296.36827     -119.87702      30070.215      0.99484732    -8364.363     
    911900   300.48095     -208.29894      30070.215      0.99484732    -8325.4219    
    912000   293.601       -569.93971      30070.215      0.99484732    -8310.7566    
    912100   303.86726     -478.51701      30070.215      0.99484732    -8266.4016    
    912200   301.67619     -108.53976      30070.215      0.99484732    -8232.7122    
    912300   302.30688     -26.395704      30070.215      0.99484732    -8211.1087    
    912400   305.72917     -243.23376      30070.215      0.99484732    -8147.986     
    912500   306.66559     -108.85539      30070.215      0.99484732    -8122.7998    
    912600   302.24885      147.29369      30070.215      0.99484732    -8200.9887    
    912700   304.80276      19.542677      30070.215      0.99484732    -8241.8925    
    912800   296.4988      -312.94308      30070.215      0.99484732    -8278.7805    
    912900   298.2742      -102.29039      30070.215      0.99484732    -8272.1864    
    913000   306.6216      -453.92895      30070.215      0.99484732    -8241.2928    
    913100   300.62466      376.53686      30070.215      0.99484732    -8214.0755    
    913200   304.55531     -554.47583      30070.215      0.99484732    -8162.6686    
    913300   311.51149     -531.83366      30070.215      0.99484732    -8131.9149    
    913400   300.01482     -731.05352      30070.215      0.99484732    -8190.0529    
    913500   292.45578     -682.01064      30070.215      0.99484732    -8242.3953    
    913600   299.86535      426.89166      30070.215      0.99484732    -8227.296     
    913700   297.65746      603.88422      30070.215      0.99484732    -8228.2592    
    913800   294.99723     -140.38508      30070.215      0.99484732    -8247.6048    
    913900   292.54343      282.76359      30070.215      0.99484732    -8310.3926    
    914000   282.48717     -88.727071      30070.215      0.99484732    -8341.776     
    914100   293.27172      422.34209      30070.215      0.99484732    -8270.6814    
    914200   311.81436     -44.378131      30070.215      0.99484732    -8234.7341    
    914300   298.18174      231.47887      30070.215      0.99484732    -8260.5909    
    914400   300.973       -172.52577      30070.215      0.99484732    -8281.2201    
    914500   296.66892      3.7939895      30070.215      0.99484732    -8290.5982    
    914600   298.292       -584.48115      30070.215      0.99484732    -8318.2325    
    914700   299.66344     -320.95038      30070.215      0.99484732    -8332.6272    
    914800   299.89517      93.035997      30070.215      0.99484732    -8271.0127    
    914900   298.12173     -463.97869      30070.215      0.99484732    -8225.7521    
    915000   304.08039      31.698541      30070.215      0.99484732    -8235.6794    
    915100   297.70059      25.060105      30070.215      0.99484732    -8283.0228    
    915200   297.08661     -129.33391      30070.215      0.99484732    -8343.2506    
    915300   299.25072     -303.44654      30070.215      0.99484732    -8361.47      
    915400   287.1786      -465.7728       30070.215      0.99484732    -8379.7833    
    915500   295.12738     -84.483888      30070.215      0.99484732    -8321.0789    
    915600   302.01487      658.4787       30070.215      0.99484732    -8257.9892    
    915700   300.84494     -191.18315      30070.215      0.99484732    -8254.0693    
    915800   310.61764     -503.92993      30070.215      0.99484732    -8257.1073    
    915900   295.30193      334.2661       30070.215      0.99484732    -8280.2419    
    916000   297.69352     -116.66459      30070.215      0.99484732    -8330.0705    
    916100   295.89943     -253.83687      30070.215      0.99484732    -8352.0838    
    916200   300.43294     -27.776715      30070.215      0.99484732    -8358.763     
    916300   288.66478     -848.05273      30070.215      0.99484732    -8410.8529    
    916400   298.10393     -433.49849      30070.215      0.99484732    -8371.8513    
    916500   300.48201      135.53466      30070.215      0.99484732    -8315.1815    
    916600   298.68587     -415.85352      30070.215      0.99484732    -8316.2898    
    916700   295.88584     -315.18504      30070.215      0.99484732    -8309.1823    
    916800   305.71779      217.56567      30070.215      0.99484732    -8236.4813    
    916900   301.73942      465.6469       30070.215      0.99484732    -8197.01      
    917000   300.93893     -94.131336      30070.215      0.99484732    -8224.705     
    917100   294.01951     -161.001        30070.215      0.99484732    -8302.9837    
    917200   299.60882     -532.21443      30070.215      0.99484732    -8340.8244    
    917300   296.86049     -28.621107      30070.215      0.99484732    -8327.0371    
    917400   301.14526      166.02492      30070.215      0.99484732    -8285.8605    
    917500   303.54131     -385.89116      30070.215      0.99484732    -8247.1019    
    917600   307.28199      459.68745      30070.215      0.99484732    -8220.3929    
    917700   315.38657     -91.049326      30070.215      0.99484732    -8157.5319    
    917800   300.32685     -348.26511      30070.215      0.99484732    -8176.6656    
    917900   299.68488     -340.05253      30070.215      0.99484732    -8243.4704    
    918000   299.13063      197.68787      30070.215      0.99484732    -8255.2768    
    918100   301.7052      -39.584865      30070.215      0.99484732    -8239.5435    
    918200   309.73374      619.59247      30070.215      0.99484732    -8211.1326    
    918300   304.78204     -58.123278      30070.215      0.99484732    -8210.4559    
    918400   303.33951      87.926946      30070.215      0.99484732    -8243.3472    
    918500   294.9504      -4.9274699      30070.215      0.99484732    -8291.5538    
    918600   294.82826     -687.79396      30070.215      0.99484732    -8271.7076    
    918700   310.19844     -45.708194      30070.215      0.99484732    -8202.7171    
    918800   301.46764      284.81602      30070.215      0.99484732    -8214.3244    
    918900   303.88531     -69.100221      30070.215      0.99484732    -8258.728     
    919000   299.0031      -53.440292      30070.215      0.99484732    -8297.7538    
    919100   299.43425     -869.51195      30070.215      0.99484732    -8286.9651    
    919200   297.55353     -187.22766      30070.215      0.99484732    -8255.2484    
    919300   302.19501      159.31729      30070.215      0.99484732    -8236.8997    
    919400   298.79521      64.366396      30070.215      0.99484732    -8231.6672    
    919500   305.44462      400.01462      30070.215      0.99484732    -8230.2176    
    919600   297.98634      309.70419      30070.215      0.99484732    -8313.8838    
    919700   295.74917      645.3911       30070.215      0.99484732    -8341.4402    
    919800   300.18215      281.85918      30070.215      0.99484732    -8289.0571    
    919900   301.57752      466.27428      30070.215      0.99484732    -8263.2207    
    920000   296.12681      379.85094      30070.215      0.99484732    -8263.611     
    920100   302.87422      188.78416      30070.215      0.99484732    -8217.4765    
    920200   302.34559      647.49764      30070.215      0.99484732    -8177.6498    
    920300   303.55419      251.59105      30070.215      0.99484732    -8214.5737    
    920400   308.64913     -525.16087      30070.215      0.99484732    -8275.5033    
    920500   299.10608      175.33122      30070.215      0.99484732    -8306.691     
    920600   296.91227      55.164145      30070.215      0.99484732    -8314.1263    
    920700   304.2373      -512.97703      30070.215      0.99484732    -8319.0059    
    920800   300.24138      48.388342      30070.215      0.99484732    -8328.774     
    920900   298.03046      92.097405      30070.215      0.99484732    -8331.3259    
    921000   298.42069      215.97163      30070.215      0.99484732    -8307.0865    
    921100   299.92145      249.22446      30070.215      0.99484732    -8279.2292    
    921200   300.61548      524.81872      30070.215      0.99484732    -8256.1456    
    921300   302.7788      -537.82374      30070.215      0.99484732    -8275.9362    
    921400   297.71295     -602.4576       30070.215      0.99484732    -8330.7722    
    921500   285.28445      643.06286      30070.215      0.99484732    -8366.3347    
    921600   289.41364     -139.14169      30070.215      0.99484732    -8344.5078    
    921700   294.46269      147.75056      30070.215      0.99484732    -8255.1216    
    921800   300.07184     -295.48286      30070.215      0.99484732    -8246.6376    
    921900   294.42942     -657.84205      30070.215      0.99484732    -8282.5516    
    922000   299.5689      -255.61583      30070.215      0.99484732    -8330.7722    
    922100   294.372       -690.9199       30070.215      0.99484732    -8344.7662    
    922200   295.55812      300.03752      30070.215      0.99484732    -8256.9447    
    922300   304.82341     -832.18503      30070.215      0.99484732    -8215.4855    
    922400   297.16182      449.71707      30070.215      0.99484732    -8246.0558    
    922500   300.29131     -514.23322      30070.215      0.99484732    -8276.2575    
    922600   292.04307     -188.90153      30070.215      0.99484732    -8294.2552    
    922700   300.09039      520.08347      30070.215      0.99484732    -8233.7776    
    922800   305.86193      107.15032      30070.215      0.99484732    -8188.8298    
    922900   306.73828      329.66632      30070.215      0.99484732    -8222.141     
    923000   305.35244     -49.283507      30070.215      0.99484732    -8288.3336    
    923100   293.14403     -387.38049      30070.215      0.99484732    -8306.4456    
    923200   302.96164     -273.26987      30070.215      0.99484732    -8289.4452    
    923300   300.13101      18.75922       30070.215      0.99484732    -8261.2797    
    923400   305.22862      181.31599      30070.215      0.99484732    -8214.3118    
    923500   303.73354      36.673481      30070.215      0.99484732    -8173.5603    
    923600   302.3924       364.26985      30070.215      0.99484732    -8227.0203    
    923700   295.45852     -405.94073      30070.215      0.99484732    -8301.1348    
    923800   291.38054     -213.50512      30070.215      0.99484732    -8307.32      
    923900   299.53609     -476.82255      30070.215      0.99484732    -8246.1311    
    924000   306.44161     -566.7499       30070.215      0.99484732    -8212.5095    
    924100   297.05071      851.0969       30070.215      0.99484732    -8221.9757    
    924200   298.3911      -148.58044      30070.215      0.99484732    -8247.9398    
    924300   295.97196     -398.68022      30070.215      0.99484732    -8324.518     
    924400   303.42584     -91.935085      30070.215      0.99484732    -8367.4248    
    924500   293.51967     -680.06541      30070.215      0.99484732    -8371.949     
    924600   303.6528      -714.32006      30070.215      0.99484732    -8281.2176    
    924700   298.62043     -407.55049      30070.215      0.99484732    -8239.4658    
    924800   303.0848       1011.0404      30070.215      0.99484732    -8241.2067    
    924900   293.08382      392.90659      30070.215      0.99484732    -8293.5723    
    925000   295.57728     -183.10418      30070.215      0.99484732    -8328.7753    
    925100   293.63083      245.12696      30070.215      0.99484732    -8286.2473    
    925200   305.3466       1026.5124      30070.215      0.99484732    -8211.5854    
    925300   299.56101      237.78835      30070.215      0.99484732    -8240.5358    
    925400   301.10937     -437.45583      30070.215      0.99484732    -8264.356     
    925500   303.05252     -156.51312      30070.215      0.99484732    -8265.594     
    925600   291.53196      117.86287      30070.215      0.99484732    -8306.8866    
    925700   295.2958       403.03755      30070.215      0.99484732    -8333.002     
    925800   297.34143     -160.52878      30070.215      0.99484732    -8335.2112    
    925900   297.62541      194.22352      30070.215      0.99484732    -8272.611     
    926000   300.79847      110.28339      30070.215      0.99484732    -8221.2936    
    926100   295.8724      -100.84539      30070.215      0.99484732    -8223.7421    
    926200   297.33404     -467.00715      30070.215      0.99484732    -8212.5952    
    926300   308.62498      42.028323      30070.215      0.99484732    -8139.3634    
    926400   307.87046      62.715046      30070.215      0.99484732    -8170.9148    
    926500   298.46241     -165.11637      30070.215      0.99484732    -8252.5956    
    926600   296.51705     -892.403        30070.215      0.99484732    -8267.4345    
    926700   294.16075     -523.06219      30070.215      0.99484732    -8232.7576    
    926800   303.92042     -661.12129      30070.215      0.99484732    -8180.582     
    926900   296.20446     -255.28878      30070.215      0.99484732    -8202.1198    
    927000   293.81362      158.57495      30070.215      0.99484732    -8273.8178    
    927100   296.66856      63.970875      30070.215      0.99484732    -8293.6561    
    927200   295.55833     -118.81755      30070.215      0.99484732    -8289.3736    
    927300   295.00612     -552.72914      30070.215      0.99484732    -8276.5641    
    927400   297.72409     -310.56046      30070.215      0.99484732    -8225.4041    
    927500   312.13458     -213.69741      30070.215      0.99484732    -8182.6929    
    927600   301.97541     -431.24887      30070.215      0.99484732    -8205.9699    
    927700   291.73278     -364.5139       30070.215      0.99484732    -8309.0938    
    927800   296.53696      343.74401      30070.215      0.99484732    -8321.5326    
    927900   313.15087      334.42827      30070.215      0.99484732    -8283.7544    
    928000   309.79208     -888.04149      30070.215      0.99484732    -8271.256     
    928100   293.68744     -707.74185      30070.215      0.99484732    -8297.3354    
    928200   300.19757     -845.89881      30070.215      0.99484732    -8336.5922    
    928300   289.31903     -297.38316      30070.215      0.99484732    -8380.1644    
    928400   297.20087      413.24994      30070.215      0.99484732    -8315.3638    
    928500   292.85154      579.12213      30070.215      0.99484732    -8276.204     
    928600   299.61972      102.96082      30070.215      0.99484732    -8261.8247    
    928700   300.13709     -263.02169      30070.215      0.99484732    -8254.5965    
    928800   305.49657     -65.775649      30070.215      0.99484732    -8202.6194    
    928900   311.14924      59.704926      30070.215      0.99484732    -8147.5275    
    929000   302.01877     -106.26823      30070.215      0.99484732    -8195.2306    
    929100   296.84666     -267.77563      30070.215      0.99484732    -8229.8307    
    929200   296.54576     -139.82704      30070.215      0.99484732    -8230.717     
    929300   306.60486      170.1279       30070.215      0.99484732    -8214.9436    
    929400   303.40011      392.13231      30070.215      0.99484732    -8184.2512    
    929500   303.78395     -3.3359322      30070.215      0.99484732    -8160.5556    
    929600   308.85931     -687.44397      30070.215      0.99484732    -8208.5857    
    929700   299.77894     -183.41223      30070.215      0.99484732    -8272.8068    
    929800   289.52598      152.25005      30070.215      0.99484732    -8284.5739    
    929900   302.55773      384.36782      30070.215      0.99484732    -8232.162     
    930000   303.00667      327.36949      30070.215      0.99484732    -8210.1146    
    930100   299.70462     -348.62148      30070.215      0.99484732    -8282.5988    
    930200   295.59499      190.22477      30070.215      0.99484732    -8342.5255    
    930300   307.48312     -115.55738      30070.215      0.99484732    -8327.5244    
    930400   307.25268      143.56493      30070.215      0.99484732    -8314.9015    
    930500   302.62251      812.3955       30070.215      0.99484732    -8269.0387    
    930600   301.22561      82.406167      30070.215      0.99484732    -8223.9215    
    930700   309.47336     -148.88646      30070.215      0.99484732    -8201.8468    
    930800   305.17909     -106.21686      30070.215      0.99484732    -8268.2185    
    930900   283.28897     -485.83427      30070.215      0.99484732    -8321.0527    
    931000   306.36677     -204.6697       30070.215      0.99484732    -8275.2891    
    931100   308.17973      349.0068       30070.215      0.99484732    -8263.9946    
    931200   302.36681     -187.98517      30070.215      0.99484732    -8306.8816    
    931300   295.61818     -358.24726      30070.215      0.99484732    -8367.3937    
    931400   294.26795      95.911083      30070.215      0.99484732    -8322.1294    
    931500   299.40589      500.83559      30070.215      0.99484732    -8296.8058    
    931600   300.31673      159.94306      30070.215      0.99484732    -8310.3827    
    931700   291.26855      82.480594      30070.215      0.99484732    -8322.5439    
    931800   304.29407      43.304623      30070.215      0.99484732    -8235.1299    
    931900   305.12958     -893.34823      30070.215      0.99484732    -8186.2386    
    932000   308.05441      183.85495      30070.215      0.99484732    -8160.6259    
    932100   300.77731     -282.95681      30070.215      0.99484732    -8203.719     
    932200   296.7493      -446.53335      30070.215      0.99484732    -8249.6039    
    932300   306.09781     -134.02721      30070.215      0.99484732    -8238.3938    
    932400   305.50124      261.89371      30070.215      0.99484732    -8243.4171    
    932500   293.38496      175.41409      30070.215      0.99484732    -8267.2021    
    932600   307.15105     -491.85213      30070.215      0.99484732    -8274.1698    
    932700   293.03253     -541.02923      30070.215      0.99484732    -8307.3477    
    932800   289.53777     -59.944866      30070.215      0.99484732    -8309.7719    
    932900   310.68464     -386.81171      30070.215      0.99484732    -8233.8604    
    933000   302.36805      283.85635      30070.215      0.99484732    -8223.3532    
    933100   299.3379      -271.03326      30070.215      0.99484732    -8249.1219    
    933200   292.12994      759.46252      30070.215      0.99484732    -8315.9719    
    933300   300.86136      112.3938       30070.215      0.99484732    -8372.4507    
    933400   297.02113      131.91958      30070.215      0.99484732    -8360.4679    
    933500   291.47686      41.263269      30070.215      0.99484732    -8320.8403    
    933600   299.33018      5.8435543      30070.215      0.99484732    -8271.9731    
    933700   298.60997      93.303182      30070.215      0.99484732    -8243.9982    
    933800   302.14572      322.98237      30070.215      0.99484732    -8241.7841    
    933900   294.33116     -369.22324      30070.215      0.99484732    -8292.585     
    934000   295.39781      211.65364      30070.215      0.99484732    -8317.7871    
    934100   288.22341      441.89048      30070.215      0.99484732    -8333.1403    
    934200   292.13483      145.09306      30070.215      0.99484732    -8266.845     
    934300   310.39806     -261.17023      30070.215      0.99484732    -8193.2934    
    934400   311.39436     -86.099439      30070.215      0.99484732    -8164.0837    
    934500   300.54392      766.43967      30070.215      0.99484732    -8170.1463    
    934600   294.75074      77.293281      30070.215      0.99484732    -8214.3183    
    934700   296.27432     -564.65573      30070.215      0.99484732    -8245.4701    
    934800   305.85827      215.1384       30070.215      0.99484732    -8205.9611    
    934900   306.33541      638.27284      30070.215      0.99484732    -8147.5174    
    935000   304.00444      275.97393      30070.215      0.99484732    -8186.8652    
    935100   303.07047     -282.37879      30070.215      0.99484732    -8271.4896    
    935200   307.86042     -100.87947      30070.215      0.99484732    -8272.9644    
    935300   295.34926      293.11808      30070.215      0.99484732    -8254.8107    
    935400   300.11053      56.295939      30070.215      0.99484732    -8220.4142    
    935500   303.07011      145.81491      30070.215      0.99484732    -8148.6783    
    935600   304.92938     -199.67324      30070.215      0.99484732    -8131.8214    
    935700   302.23721      354.5911       30070.215      0.99484732    -8196.7729    
    935800   298.19792     -34.469931      30070.215      0.99484732    -8255.3631    
    935900   300.65538     -403.54333      30070.215      0.99484732    -8257.1392    
    936000   304.07595      170.91356      30070.215      0.99484732    -8247.5374    
    936100   296.08861      167.41136      30070.215      0.99484732    -8273.2729    
    936200   292.10933     -388.46557      30070.215      0.99484732    -8319.0702    
    936300   297.51137     -35.062633      30070.215      0.99484732    -8320.9697    
    936400   304.42722      367.60607      30070.215      0.99484732    -8250.0683    
    936500   310.09525      356.9615       30070.215      0.99484732    -8215.2851    
    936600   304.39013      348.17046      30070.215      0.99484732    -8242.6088    
    936700   290.28701      91.623684      30070.215      0.99484732    -8321.1101    
    936800   299.62387     -369.00912      30070.215      0.99484732    -8363.3675    
    936900   300.88472     -273.21649      30070.215      0.99484732    -8356.7002    
    937000   301.66656     -301.34266      30070.215      0.99484732    -8325.7219    
    937100   298.33137     -21.773593      30070.215      0.99484732    -8269.9381    
    937200   305.37486      167.49422      30070.215      0.99484732    -8175.7996    
    937300   302.22234      319.95286      30070.215      0.99484732    -8166.1958    
    937400   301.97681     -39.034291      30070.215      0.99484732    -8203.8195    
    937500   299.2849      -26.18981       30070.215      0.99484732    -8262.927     
    937600   292.50794     -78.873132      30070.215      0.99484732    -8283.1339    
    937700   304.00084      604.0616       30070.215      0.99484732    -8249.5263    
    937800   301.85156      66.230213      30070.215      0.99484732    -8213.3606    
    937900   310.05163     -483.34746      30070.215      0.99484732    -8162.669     
    938000   303.30168      115.7999       30070.215      0.99484732    -8179.1516    
    938100   292.31714      502.64209      30070.215      0.99484732    -8250.9501    
    938200   296.52032      201.52299      30070.215      0.99484732    -8277.1107    
    938300   299.11067      339.51224      30070.215      0.99484732    -8262.6697    
    938400   296.20819      493.39411      30070.215      0.99484732    -8230.8687    
    938500   306.28956      223.03937      30070.215      0.99484732    -8130.0936    
    938600   302.88216      310.25703      30070.215      0.99484732    -8146.8622    
    938700   301.64007     -335.41775      30070.215      0.99484732    -8196.4524    
    938800   303.4078       186.1289       30070.215      0.99484732    -8205.2531    
    938900   299.48998      45.155899      30070.215      0.99484732    -8259.6891    
    939000   299.68747     -603.71409      30070.215      0.99484732    -8333.7903    
    939100   291.7842       478.24969      30070.215      0.99484732    -8336.7767    
    939200   298.38809      347.76832      30070.215      0.99484732    -8295.8419    
    939300   300.55056     -608.89553      30070.215      0.99484732    -8256.1521    
    939400   304.47348      33.115607      30070.215      0.99484732    -8235.4712    
    939500   305.30102      57.970685      30070.215      0.99484732    -8237.0841    
    939600   304.87167      175.13722      30070.215      0.99484732    -8237.8035    
    939700   294.42697      273.3451       30070.215      0.99484732    -8294.783     
    939800   292.02128      391.16955      30070.215      0.99484732    -8356.7836    
    939900   294.19939     -77.987274      30070.215      0.99484732    -8334.6229    
    940000   298.93973      298.31532      30070.215      0.99484732    -8299.4482    
    940100   299.88239      178.63017      30070.215      0.99484732    -8297.471     
    940200   303.74663     -42.766883      30070.215      0.99484732    -8274.9989    
    940300   306.61609      325.37095      30070.215      0.99484732    -8228.8244    
    940400   307.65133      563.48106      30070.215      0.99484732    -8188.1595    
    940500   299.1611       207.76767      30070.215      0.99484732    -8236.2463    
    940600   296.38829      83.894262      30070.215      0.99484732    -8305.7504    
    940700   299.95646     -293.81887      30070.215      0.99484732    -8293.8194    
    940800   298.17165     -170.05042      30070.215      0.99484732    -8239.0036    
    940900   306.02892      402.24912      30070.215      0.99484732    -8203.0589    
    941000   301.83316     -161.2213       30070.215      0.99484732    -8231.3156    
    941100   293.60562     -375.83624      30070.215      0.99484732    -8269.2377    
    941200   295.6378      -12.936743      30070.215      0.99484732    -8271.3952    
    941300   304.08489      357.02077      30070.215      0.99484732    -8254.1172    
    941400   296.28501      602.26147      30070.215      0.99484732    -8237.8836    
    941500   304.385       -53.568944      30070.215      0.99484732    -8242.1761    
    941600   292.21864      410.12916      30070.215      0.99484732    -8307.3078    
    941700   292.58111      278.0944       30070.215      0.99484732    -8329.9003    
    941800   303.88256     -254.53488      30070.215      0.99484732    -8286.9556    
    941900   295.41368      588.88661      30070.215      0.99484732    -8250.8501    
    942000   300.31027      391.87988      30070.215      0.99484732    -8183.4476    
    942100   298.15791     -272.1958       30070.215      0.99484732    -8128.1575    
    942200   306.73967     -379.62718      30070.215      0.99484732    -8123.6924    
    942300   299.04088     -252.54828      30070.215      0.99484732    -8162.071     
    942400   301.63437     -615.78199      30070.215      0.99484732    -8199.8359    
    942500   295.22277     -119.49645      30070.215      0.99484732    -8208.0942    
    942600   308.84308     -182.86076      30070.215      0.99484732    -8170.1694    
    942700   312.51237     -192.24242      30070.215      0.99484732    -8084.1962    
    942800   305.13615      670.45604      30070.215      0.99484732    -8138.1841    
    942900   298.76546      324.7652       30070.215      0.99484732    -8197.7487    
    943000   295.84149     -548.45287      30070.215      0.99484732    -8218.7516    
    943100   287.93468      446.86107      30070.215      0.99484732    -8216.714     
    943200   309.12478      127.97149      30070.215      0.99484732    -8166.5685    
    943300   303.29924      74.006645      30070.215      0.99484732    -8166.2267    
    943400   303.49509      818.01364      30070.215      0.99484732    -8252.5224    
    943500   297.45973     -289.82031      30070.215      0.99484732    -8293.0927    
    943600   299.63479      34.561984      30070.215      0.99484732    -8277.2293    
    943700   298.71518      160.49815      30070.215      0.99484732    -8225.8179    
    943800   296.65609      416.8355       30070.215      0.99484732    -8179.7489    
    943900   308.40143      653.19345      30070.215      0.99484732    -8175.2794    
    944000   296.97288     -208.81329      30070.215      0.99484732    -8200.3268    
    944100   294.04248     -158.35063      30070.215      0.99484732    -8217.9673    
    944200   303.2933       895.7476       30070.215      0.99484732    -8229.4017    
    944300   292.95151      575.61934      30070.215      0.99484732    -8269.5416    
    944400   291.4724       53.047409      30070.215      0.99484732    -8329.657     
    944500   296.38498     -144.73516      30070.215      0.99484732    -8341.6803    
    944600   300.38565     -38.840457      30070.215      0.99484732    -8281.5753    
    944700   305.84891      310.07934      30070.215      0.99484732    -8219.7845    
    944800   299.94101     -407.24475      30070.215      0.99484732    -8253.2702    
    944900   288.70757      197.38593      30070.215      0.99484732    -8261.8071    
    945000   301.30472      439.8143       30070.215      0.99484732    -8203.9729    
    945100   300.0102       790.35824      30070.215      0.99484732    -8143.4984    
    945200   312.57874      652.90793      30070.215      0.99484732    -8169.5908    
    945300   301.09525     -377.39837      30070.215      0.99484732    -8219.4968    
    945400   300.76169      10.717418      30070.215      0.99484732    -8225.1735    
    945500   297.71195      445.77951      30070.215      0.99484732    -8237.7709    
    945600   297.44403      430.54967      30070.215      0.99484732    -8272.1942    
    945700   290.83961     -604.35932      30070.215      0.99484732    -8303.6291    
    945800   300.83732     -531.06347      30070.215      0.99484732    -8253.6177    
    945900   303.34584      77.330698      30070.215      0.99484732    -8187.674     
    946000   305.08113      469.17806      30070.215      0.99484732    -8199.9823    
    946100   295.62051     -371.9831       30070.215      0.99484732    -8248.9051    
    946200   302.10243     -545.15299      30070.215      0.99484732    -8280.2869    
    946300   298.40707     -269.13772      30070.215      0.99484732    -8283.1388    
    946400   302.51259      403.88942      30070.215      0.99484732    -8292.6356    
    946500   300.53733     -255.45799      30070.215      0.99484732    -8304.0387    
    946600   296.44858     -704.62298      30070.215      0.99484732    -8286.8085    
    946700   307.13958     -27.552244      30070.215      0.99484732    -8189.7114    
    946800   303.91032     -25.159312      30070.215      0.99484732    -8183.187     
    946900   297.65479      161.61052      30070.215      0.99484732    -8237.2884    
    947000   300.79108      152.50504      30070.215      0.99484732    -8280.761     
    947100   298.18218     -651.57969      30070.215      0.99484732    -8297.5373    
    947200   294.57062      647.98392      30070.215      0.99484732    -8294.7554    
    947300   300.50144      276.17321      30070.215      0.99484732    -8290.1718    
    947400   302.60372     -719.02339      30070.215      0.99484732    -8279.9216    
    947500   295.32968      680.14934      30070.215      0.99484732    -8298.0918    
    947600   297.90978      117.32527      30070.215      0.99484732    -8326.8394    
    947700   294.51103      881.13293      30070.215      0.99484732    -8367.5469    
    947800   301.01644     -743.26375      30070.215      0.99484732    -8395.2949    
    947900   294.17342      262.24298      30070.215      0.99484732    -8354.2368    
    948000   297.66788      204.20155      30070.215      0.99484732    -8274.8772    
    948100   300.90536      339.20594      30070.215      0.99484732    -8264.5182    
    948200   302.9303       68.605773      30070.215      0.99484732    -8260.3338    
    948300   302.91023     -424.25332      30070.215      0.99484732    -8301.0886    
    948400   289.04944     -416.35934      30070.215      0.99484732    -8363.2191    
    948500   299.15751     -277.16793      30070.215      0.99484732    -8331.4368    
    948600   301.68139     -15.106616      30070.215      0.99484732    -8265.3871    
    948700   294.34769      603.87385      30070.215      0.99484732    -8245.9061    
    948800   290.88587      311.72709      30070.215      0.99484732    -8219.9124    
    948900   301.0197      -216.95541      30070.215      0.99484732    -8182.8359    
    949000   300.25115     -470.53586      30070.215      0.99484732    -8150.6233    
    949100   313.31276      14.041177      30070.215      0.99484732    -8093.1235    
    949200   298.18241     -25.097139      30070.215      0.99484732    -8119.2305    
    949300   295.19708      106.77132      30070.215      0.99484732    -8193.5147    
    949400   305.23987      149.06021      30070.215      0.99484732    -8218.1378    
    949500   301.42965     -347.24575      30070.215      0.99484732    -8252.2887    
    949600   294.10747      320.04278      30070.215      0.99484732    -8265.8682    
    949700   299.0462       320.08639      30070.215      0.99484732    -8253.8395    
    949800   307.52707      188.68449      30070.215      0.99484732    -8172.6739    
    949900   312.48215      429.17655      30070.215      0.99484732    -8123.8919    
    950000   298.77137     -338.41201      30070.215      0.99484732    -8176.2377    
    950100   308.21195     -387.80877      30070.215      0.99484732    -8206.0243    
    950200   296.45044     -371.08371      30070.215      0.99484732    -8206.6611    
    950300   306.70485     -165.08532      30070.215      0.99484732    -8195.804     
    950400   301.998        234.44303      30070.215      0.99484732    -8194.052     
    950500   296.3494       387.1759       30070.215      0.99484732    -8191.032     
    950600   306.6614      -135.66223      30070.215      0.99484732    -8187.264     
    950700   292.37202      532.99285      30070.215      0.99484732    -8183.3935    
    950800   303.61655      332.19544      30070.215      0.99484732    -8157.3469    
    950900   306.22922     -19.104479      30070.215      0.99484732    -8182.8849    
    951000   293.45552      234.65124      30070.215      0.99484732    -8252.587     
    951100   299.33657     -263.11155      30070.215      0.99484732    -8292.6691    
    951200   296.75404      286.34914      30070.215      0.99484732    -8278.8088    
    951300   303.82469      38.511176      30070.215      0.99484732    -8238.325     
    951400   305.92446     -371.80166      30070.215      0.99484732    -8234.674     
    951500   299.5094       160.14544      30070.215      0.99484732    -8246.3129    
    951600   290.02192      140.97377      30070.215      0.99484732    -8238.0684    
    951700   308.87214      240.50076      30070.215      0.99484732    -8174.8336    
    951800   308.86569      141.25615      30070.215      0.99484732    -8143.0264    
    951900   300.21933     -168.26082      30070.215      0.99484732    -8195.9157    
    952000   295.06739     -480.59815      30070.215      0.99484732    -8270.4       
    952100   297.31752     -141.22201      30070.215      0.99484732    -8276.464     
    952200   297.14439      103.81207      30070.215      0.99484732    -8250.3759    
    952300   302.06329     -119.13974      30070.215      0.99484732    -8192.7637    
    952400   314.46898      80.440398      30070.215      0.99484732    -8130.2117    
    952500   303.41363      392.10835      30070.215      0.99484732    -8096.6119    
    952600   306.40664     -320.42152      30070.215      0.99484732    -8127.1347    
    952700   296.73152      88.282871      30070.215      0.99484732    -8211.6022    
    952800   297.00839     -527.76885      30070.215      0.99484732    -8219.6208    
    952900   303.11887     -38.268851      30070.215      0.99484732    -8192.2135    
    953000   308.38256     -69.777494      30070.215      0.99484732    -8183.6098    
    953100   299.28208      352.13389      30070.215      0.99484732    -8264.8058    
    953200   299.53467      72.500874      30070.215      0.99484732    -8306.9263    
    953300   290.98103     -33.629697      30070.215      0.99484732    -8295.9019    
    953400   304.46238      160.9217       30070.215      0.99484732    -8236.329     
    953500   300.08838      542.56095      30070.215      0.99484732    -8193.1982    
    953600   298.75995      358.62816      30070.215      0.99484732    -8194.8107    
    953700   304.04632      319.28849      30070.215      0.99484732    -8224.8865    
    953800   299.67546      329.62949      30070.215      0.99484732    -8262.303     
    953900   299.50038     -256.41461      30070.215      0.99484732    -8266.8023    
    954000   297.49637     -250.17929      30070.215      0.99484732    -8203.6229    
    954100   308.12197      255.93546      30070.215      0.99484732    -8155.3017    
    954200   298.37992      199.74962      30070.215      0.99484732    -8194.1454    
    954300   296.5132       130.79281      30070.215      0.99484732    -8229.3555    
    954400   302.21946     -262.84659      30070.215      0.99484732    -8252.9311    
    954500   296.94499     -729.95123      30070.215      0.99484732    -8332.9471    
    954600   292.61101      46.526446      30070.215      0.99484732    -8336.1623    
    954700   301.39966      476.36838      30070.215      0.99484732    -8286.3786    
    954800   300.07093      470.01923      30070.215      0.99484732    -8272.0153    
    954900   297.46425      589.08722      30070.215      0.99484732    -8268.5941    
    955000   296.64777     -110.37771      30070.215      0.99484732    -8226.0684    
    955100   298.20108     -341.94894      30070.215      0.99484732    -8205.6036    
    955200   292.8033       611.79764      30070.215      0.99484732    -8207.8585    
    955300   292.12361     -601.69165      30070.215      0.99484732    -8313.1404    
    955400   291.19062      68.440087      30070.215      0.99484732    -8313.8325    
    955500   314.43683      181.85696      30070.215      0.99484732    -8270.5601    
    955600   300.14079     -469.31849      30070.215      0.99484732    -8280.009     
    955700   290.98362     -451.47403      30070.215      0.99484732    -8302.3069    
    955800   307.07361      300.75692      30070.215      0.99484732    -8246.3035    
    955900   297.55688      1172.4624      30070.215      0.99484732    -8232.4034    
    956000   298.53643      339.53533      30070.215      0.99484732    -8261.9425    
    956100   291.71524     -357.49227      30070.215      0.99484732    -8336.0826    
    956200   298.28468     -22.545446      30070.215      0.99484732    -8337.5655    
    956300   297.25723     -103.91844      30070.215      0.99484732    -8282.7438    
    956400   297.33757     -164.83737      30070.215      0.99484732    -8253.4005    
    956500   299.15132      170.61188      30070.215      0.99484732    -8251.9666    
    956600   298.57057     -909.86631      30070.215      0.99484732    -8253.2947    
    956700   300.35622     -155.22364      30070.215      0.99484732    -8238.8342    
    956800   297.31463      614.74785      30070.215      0.99484732    -8200.1553    
    956900   308.20354      650.29449      30070.215      0.99484732    -8183.2333    
    957000   302.77873      85.32851       30070.215      0.99484732    -8270.7451    
    957100   297.03565      136.09209      30070.215      0.99484732    -8288.5718    
    957200   290.87967     -53.447498      30070.215      0.99484732    -8276.2097    
    957300   309.96036     -386.41553      30070.215      0.99484732    -8211.9563    
    957400   307.67925      499.07838      30070.215      0.99484732    -8207.1629    
    957500   294.38047     -104.92661      30070.215      0.99484732    -8295.7198    
    957600   295.30644     -397.87926      30070.215      0.99484732    -8327.9752    
    957700   296.54672      26.087538      30070.215      0.99484732    -8311.732     
    957800   302.67936     -184.96735      30070.215      0.99484732    -8276.1729    
    957900   304.11648      595.58941      30070.215      0.99484732    -8235.5382    
    958000   300.76434      436.12894      30070.215      0.99484732    -8192.2742    
    958100   307.2225      -58.054537      30070.215      0.99484732    -8127.6548    
    958200   312.14743      71.852772      30070.215      0.99484732    -8104.8787    
    958300   303.61738     -403.53515      30070.215      0.99484732    -8190.4831    
    958400   296.89332      171.54409      30070.215      0.99484732    -8245.4083    
    958500   297.718       -145.57725      30070.215      0.99484732    -8265.6359    
    958600   302.95476      52.8443        30070.215      0.99484732    -8231.987     
    958700   305.39171      172.944        30070.215      0.99484732    -8168.7636    
    958800   303.7267      -282.30044      30070.215      0.99484732    -8144.697     
    958900   298.06507     -383.87835      30070.215      0.99484732    -8246.6119    
    959000   295.33326     -55.430515      30070.215      0.99484732    -8278.6977    
    959100   302.83745      195.24936      30070.215      0.99484732    -8258.0024    
    959200   308.47246     -90.091887      30070.215      0.99484732    -8279.6694    
    959300   297.19256     -364.72         30070.215      0.99484732    -8360.5543    
    959400   296.25628      165.55733      30070.215      0.99484732    -8361.364     
    959500   300.40095     -169.42491      30070.215      0.99484732    -8321.7381    
    959600   305.16482      92.055444      30070.215      0.99484732    -8304.9566    
    959700   283.73286     -529.41311      30070.215      0.99484732    -8349.4755    
    959800   291.30612     -908.58977      30070.215      0.99484732    -8379.6307    
    959900   301.42175     -143.59774      30070.215      0.99484732    -8320.4731    
    960000   301.52923     -791.85675      30070.215      0.99484732    -8265.1301    
    960100   292.62868      44.645142      30070.215      0.99484732    -8252.7519    
    960200   298.70013     -428.17864      30070.215      0.99484732    -8233.0585    
    960300   305.2432      -485.04629      30070.215      0.99484732    -8171.4556    
    960400   309.48623      283.42081      30070.215      0.99484732    -8115.3593    
    960500   305.59296      585.36404      30070.215      0.99484732    -8171.8947    
    960600   304.6518       234.16765      30070.215      0.99484732    -8242.0257    
    960700   301.23886      81.350219      30070.215      0.99484732    -8284.3858    
    960800   298.95735     -87.714996      30070.215      0.99484732    -8324.9903    
    960900   294.50903     -676.9032       30070.215      0.99484732    -8324.2775    
    961000   298.52127      185.23527      30070.215      0.99484732    -8248.3357    
    961100   300.10548     -125.37372      30070.215      0.99484732    -8233.2514    
    961200   298.63778     -128.8239       30070.215      0.99484732    -8237.1822    
    961300   308.57275      12.083835      30070.215      0.99484732    -8201.3518    
    961400   300.37028     -191.44623      30070.215      0.99484732    -8151.0114    
    961500   307.34543      447.84376      30070.215      0.99484732    -8098.0027    
    961600   307.35155     -300.45781      30070.215      0.99484732    -8140.0633    
    961700   299.73841      450.50088      30070.215      0.99484732    -8213.9364    
    961800   302.62936     -298.28505      30070.215      0.99484732    -8237.0045    
    961900   298.13922     -89.99077       30070.215      0.99484732    -8236.2789    
    962000   302.77372     -76.391647      30070.215      0.99484732    -8227.6962    
    962100   300.87306     -502.57083      30070.215      0.99484732    -8231.8787    
    962200   298.41418     -514.56286      30070.215      0.99484732    -8265.4141    
    962300   287.69159      209.67636      30070.215      0.99484732    -8313.7416    
    962400   297.88353      57.816675      30070.215      0.99484732    -8302.9668    
    962500   298.64854     -1085.2659      30070.215      0.99484732    -8234.9118    
    962600   308.48527     -473.35225      30070.215      0.99484732    -8169.4275    
    962700   308.18185     -240.06115      30070.215      0.99484732    -8161.4097    
    962800   300.70843      141.61404      30070.215      0.99484732    -8182.2963    
    962900   296.0383      -279.53834      30070.215      0.99484732    -8252.1643    
    963000   289.10037      441.92861      30070.215      0.99484732    -8296.1253    
    963100   301.6936      -51.52286       30070.215      0.99484732    -8265.8423    
    963200   299.17932     -129.18388      30070.215      0.99484732    -8238.3349    
    963300   303.04066      202.58272      30070.215      0.99484732    -8209.0662    
    963400   304.27318      527.87739      30070.215      0.99484732    -8206.689     
    963500   299.6957       201.4521       30070.215      0.99484732    -8227.5739    
    963600   302.08167     -178.538        30070.215      0.99484732    -8229.9403    
    963700   295.52312     -508.30423      30070.215      0.99484732    -8224.5402    
    963800   294.38689     -164.4542       30070.215      0.99484732    -8215.3095    
    963900   305.81567     -235.21647      30070.215      0.99484732    -8146.6115    
    964000   312.01187      190.23478      30070.215      0.99484732    -8129.1859    
    964100   296.2814       670.41354      30070.215      0.99484732    -8204.5678    
    964200   301.01825      106.39701      30070.215      0.99484732    -8232.9976    
    964300   299.76071     -47.005763      30070.215      0.99484732    -8275.5824    
    964400   294.37526     -104.44432      30070.215      0.99484732    -8294.3599    
    964500   304.27448      189.61009      30070.215      0.99484732    -8263.3075    
    964600   304.74158      23.432085      30070.215      0.99484732    -8161.0622    
    964700   300.21554      52.902067      30070.215      0.99484732    -8132.7316    
    964800   313.72387     -0.98327752     30070.215      0.99484732    -8163.4758    
    964900   302.35596      436.08692      30070.215      0.99484732    -8227.3801    
    965000   300.79851      685.34143      30070.215      0.99484732    -8237.6932    
    965100   298.27122      579.51217      30070.215      0.99484732    -8275.8558    
    965200   295.05838      290.1632       30070.215      0.99484732    -8315.0274    
    965300   303.13525      690.46943      30070.215      0.99484732    -8325.9753    
    965400   293.36642      351.64118      30070.215      0.99484732    -8396.663     
    965500   300.22786     -530.31426      30070.215      0.99484732    -8384.6937    
    965600   294.12701      285.63392      30070.215      0.99484732    -8312.7099    
    965700   301.0462       46.524773      30070.215      0.99484732    -8269.0074    
    965800   299.61898      730.27615      30070.215      0.99484732    -8267.7364    
    965900   294.04119      3.762563       30070.215      0.99484732    -8301.5419    
    966000   300.37078     -161.37209      30070.215      0.99484732    -8338.1831    
    966100   291.86531     -16.491025      30070.215      0.99484732    -8344.5831    
    966200   298.08802     -212.52292      30070.215      0.99484732    -8261.0092    
    966300   301.22592     -189.10925      30070.215      0.99484732    -8211.1854    
    966400   298.87867     -24.588915      30070.215      0.99484732    -8210.1948    
    966500   294.67973      3.9749957      30070.215      0.99484732    -8260.8154    
    966600   295.68432     -66.304907      30070.215      0.99484732    -8319.084     
    966700   293.00989      399.20645      30070.215      0.99484732    -8350.3572    
    966800   296.31844      500.31124      30070.215      0.99484732    -8294.1303    
    966900   301.94746     -645.93722      30070.215      0.99484732    -8212.6838    
    967000   306.71871     -580.01488      30070.215      0.99484732    -8183.8703    
    967100   309.0916      -64.14402       30070.215      0.99484732    -8195.2601    
    967200   297.79115      227.80966      30070.215      0.99484732    -8256.0992    
    967300   297.99267     -448.48363      30070.215      0.99484732    -8299.9572    
    967400   299.60335      273.44995      30070.215      0.99484732    -8288.088     
    967500   303.37307      303.85498      30070.215      0.99484732    -8223.5379    
    967600   301.56163      186.0452       30070.215      0.99484732    -8127.954     
    967700   302.52785      287.56444      30070.215      0.99484732    -8137.9128    
    967800   304.56876     -226.3972       30070.215      0.99484732    -8197.9656    
    967900   298.73646     -282.42112      30070.215      0.99484732    -8254.0477    
    968000   289.37775      586.1129       30070.215      0.99484732    -8264.4366    
    968100   302.18934      93.087302      30070.215      0.99484732    -8219.7324    
    968200   311.16929      204.30824      30070.215      0.99484732    -8155.2346    
    968300   304.70644      106.45302      30070.215      0.99484732    -8177.9008    
    968400   295.13915     -167.4529       30070.215      0.99484732    -8287.6898    
    968500   296.15129      175.47222      30070.215      0.99484732    -8316.4183    
    968600   294.41429     -552.37323      30070.215      0.99484732    -8347.0558    
    968700   297.55937      475.96117      30070.215      0.99484732    -8314.9137    
    968800   304.58256     -210.77202      30070.215      0.99484732    -8250.2305    
    968900   295.86678      616.17736      30070.215      0.99484732    -8232.7672    
    969000   306.5245      -182.04839      30070.215      0.99484732    -8225.9861    
    969100   300.09682     -245.53079      30070.215      0.99484732    -8234.1252    
    969200   304.95949      111.93316      30070.215      0.99484732    -8179.8869    
    969300   309.42121      515.8079       30070.215      0.99484732    -8151.8548    
    969400   294.79868     -416.08432      30070.215      0.99484732    -8231.5698    
    969500   294.2759      -115.84711      30070.215      0.99484732    -8245.0227    
    969600   301.21493     -37.321721      30070.215      0.99484732    -8221.8781    
    969700   301.29892     -181.55788      30070.215      0.99484732    -8260.3187    
    969800   293.38342     -517.69711      30070.215      0.99484732    -8323.7057    
    969900   304.35772     -33.760356      30070.215      0.99484732    -8305.5063    
    970000   305.79908      241.92768      30070.215      0.99484732    -8316.3159    
    970100   292.73087     -460.77585      30070.215      0.99484732    -8406.307     
    970200   294.86551     -17.88528       30070.215      0.99484732    -8411.8699    
    970300   296.98338     -706.16039      30070.215      0.99484732    -8355.7147    
    970400   297.59847     -173.29568      30070.215      0.99484732    -8305.6288    
    970500   296.94693     -56.490302      30070.215      0.99484732    -8265.7169    
    970600   306.53068     -35.163121      30070.215      0.99484732    -8215.9905    
    970700   301.82825      338.95633      30070.215      0.99484732    -8208.7516    
    970800   299.53591      626.58693      30070.215      0.99484732    -8208.3281    
    970900   295.75716      164.13163      30070.215      0.99484732    -8277.331     
    971000   297.12962     -68.707587      30070.215      0.99484732    -8338.0519    
    971100   296.1819      -134.89263      30070.215      0.99484732    -8323.8724    
    971200   291.18234      160.93817      30070.215      0.99484732    -8271.1128    
    971300   303.87843      202.7517       30070.215      0.99484732    -8210.861     
    971400   304.32188      317.38061      30070.215      0.99484732    -8202.339     
    971500   297.89864      96.69584       30070.215      0.99484732    -8221.4548    
    971600   300.66325     -40.519722      30070.215      0.99484732    -8226.7471    
    971700   304.42254     -175.64461      30070.215      0.99484732    -8207.9941    
    971800   301.59076      264.12511      30070.215      0.99484732    -8198.8425    
    971900   306.25355      181.79965      30070.215      0.99484732    -8217.2713    
    972000   296.21616      572.90729      30070.215      0.99484732    -8290.3296    
    972100   297.23201      503.27673      30070.215      0.99484732    -8313.3757    
    972200   296.89791      105.91326      30070.215      0.99484732    -8310.1358    
    972300   294.90582      206.25165      30070.215      0.99484732    -8265.5232    
    972400   300.92091      254.36692      30070.215      0.99484732    -8190.4777    
    972500   302.24793      364.02225      30070.215      0.99484732    -8204.0897    
    972600   310.01538      96.892925      30070.215      0.99484732    -8268.9616    
    972700   297.13233     -196.04033      30070.215      0.99484732    -8309.0031    
    972800   298.32363      631.80667      30070.215      0.99484732    -8293.9156    
    972900   300.44514      151.86838      30070.215      0.99484732    -8259.6343    
    973000   301.95383      519.32793      30070.215      0.99484732    -8265.292     
    973100   288.98015      355.32651      30070.215      0.99484732    -8349.4798    
    973200   292.72773     -196.04482      30070.215      0.99484732    -8350.3944    
    973300   294.53464     -332.76031      30070.215      0.99484732    -8286.1794    
    973400   298.46782      27.557668      30070.215      0.99484732    -8246.3229    
    973500   294.81907      429.47185      30070.215      0.99484732    -8225.4085    
    973600   307.44471      174.93385      30070.215      0.99484732    -8218.3705    
    973700   291.49683      162.54049      30070.215      0.99484732    -8300.6373    
    973800   295.68136     -536.9699       30070.215      0.99484732    -8316.7749    
    973900   299.81838     -88.204576      30070.215      0.99484732    -8271.8701    
    974000   303.91917     -109.00016      30070.215      0.99484732    -8231.8709    
    974100   298.7358       418.65672      30070.215      0.99484732    -8241.7304    
    974200   297.06915      386.36602      30070.215      0.99484732    -8286.539     
    974300   291.87415     -118.30814      30070.215      0.99484732    -8342.5958    
    974400   295.33232     -498.80111      30070.215      0.99484732    -8341.41      
    974500   297.93854      26.160338      30070.215      0.99484732    -8308.6425    
    974600   301.65652      239.10441      30070.215      0.99484732    -8252.5483    
    974700   304.67538     -87.020677      30070.215      0.99484732    -8214.5217    
    974800   300.00823     -677.66482      30070.215      0.99484732    -8246.501     
    974900   296.67663     -108.99168      30070.215      0.99484732    -8307.0688    
    975000   301.15079      268.37011      30070.215      0.99484732    -8323.5614    
    975100   299.68593      122.72286      30070.215      0.99484732    -8306.5181    
    975200   299.60801      39.000432      30070.215      0.99484732    -8304.4087    
    975300   298.00942      172.88608      30070.215      0.99484732    -8306.4885    
    975400   302.52347      532.2337       30070.215      0.99484732    -8294.2225    
    975500   307.37169      625.45756      30070.215      0.99484732    -8268.8433    
    975600   300.81879     -3.216009       30070.215      0.99484732    -8331.3163    
    975700   296.15213     -246.90613      30070.215      0.99484732    -8371.8535    
    975800   296.5512       405.77412      30070.215      0.99484732    -8341.5674    
    975900   294.57816      743.16982      30070.215      0.99484732    -8292.9621    
    976000   299.09066     -129.24023      30070.215      0.99484732    -8261.7926    
    976100   297.92326     -7.6309648      30070.215      0.99484732    -8236.769     
    976200   305.53851      337.26062      30070.215      0.99484732    -8207.8298    
    976300   298.25101     -353.4564       30070.215      0.99484732    -8230.0443    
    976400   299.90626     -320.31965      30070.215      0.99484732    -8289.1474    
    976500   299.0925      -336.17959      30070.215      0.99484732    -8348.0639    
    976600   298.29573     -164.60605      30070.215      0.99484732    -8330.8805    
    976700   302.29607      299.42314      30070.215      0.99484732    -8289.3474    
    976800   300.40159      910.9987       30070.215      0.99484732    -8281.786     
    976900   302.98263     -207.55819      30070.215      0.99484732    -8265.424     
    977000   304.87148      172.15796      30070.215      0.99484732    -8242.0926    
    977100   307.8375      -70.157629      30070.215      0.99484732    -8237.4377    
    977200   291.51373     -282.42228      30070.215      0.99484732    -8305.0642    
    977300   303.85189     -549.63967      30070.215      0.99484732    -8326.5944    
    977400   306.80746      50.056824      30070.215      0.99484732    -8338.2341    
    977500   291.9921       382.40162      30070.215      0.99484732    -8388.4187    
    977600   296.61306     -39.168057      30070.215      0.99484732    -8391.324     
    977700   296.56434      857.93613      30070.215      0.99484732    -8306.7294    
    977800   304.33576      155.26957      30070.215      0.99484732    -8272.407     
    977900   302.86945     -343.99991      30070.215      0.99484732    -8261.7306    
    978000   297.78039     -301.83863      30070.215      0.99484732    -8265.0912    
    978100   296.81019     -152.82134      30070.215      0.99484732    -8242.688     
    978200   312.04378      628.76712      30070.215      0.99484732    -8185.9098    
    978300   307.15374     -333.78505      30070.215      0.99484732    -8222.1826    
    978400   300.94768     -438.19469      30070.215      0.99484732    -8287.9505    
    978500   290.677        102.3201       30070.215      0.99484732    -8297.2853    
    978600   306.41716     -39.773085      30070.215      0.99484732    -8256.6962    
    978700   313.19069     -274.19674      30070.215      0.99484732    -8232.4042    
    978800   297.75903      512.73472      30070.215      0.99484732    -8300.4337    
    978900   297.34277     -127.76589      30070.215      0.99484732    -8361.1418    
    979000   292.15961      461.5985       30070.215      0.99484732    -8343.6683    
    979100   289.79704     -82.483594      30070.215      0.99484732    -8308.7314    
    979200   308.63151      92.650015      30070.215      0.99484732    -8241.1642    
    979300   303.02371      451.32641      30070.215      0.99484732    -8233.9723    
    979400   295.12258      73.291545      30070.215      0.99484732    -8254.9314    
    979500   303.68358     -200.93099      30070.215      0.99484732    -8260.3683    
    979600   303.24975      29.642161      30070.215      0.99484732    -8283.9213    
    979700   296.68057     -221.81832      30070.215      0.99484732    -8337.4363    
    979800   299.2738      -253.21229      30070.215      0.99484732    -8333.9002    
    979900   306.99039     -160.17177      30070.215      0.99484732    -8285.2566    
    980000   304.33533      398.91089      30070.215      0.99484732    -8247.6809    
    980100   308.15015     -34.873865      30070.215      0.99484732    -8258.6084    
    980200   290.26687     -534.8524       30070.215      0.99484732    -8346.993     
    980300   296.0839      -72.325374      30070.215      0.99484732    -8325.3723    
    980400   297.32356     -351.32383      30070.215      0.99484732    -8278.6724    
    980500   304.9822      -43.433425      30070.215      0.99484732    -8235.6969    
    980600   300.71781     -397.07236      30070.215      0.99484732    -8235.848     
    980700   300.50144      490.02414      30070.215      0.99484732    -8256.1973    
    980800   298.91202      361.80653      30070.215      0.99484732    -8279.8565    
    980900   298.43404      65.915797      30070.215      0.99484732    -8305.1304    
    981000   299.48774      263.1698       30070.215      0.99484732    -8313.5775    
    981100   303.05579     -85.665403      30070.215      0.99484732    -8250.6571    
    981200   311.61556     -507.35298      30070.215      0.99484732    -8179.8213    
    981300   299.88162     -287.3006       30070.215      0.99484732    -8195.5894    
    981400   305.56942     -349.36768      30070.215      0.99484732    -8236.3785    
    981500   296.21115      224.05538      30070.215      0.99484732    -8295.5948    
    981600   295.36481     -508.52475      30070.215      0.99484732    -8323.326     
    981700   295.15589     -289.9286       30070.215      0.99484732    -8281.2281    
    981800   297.77065      504.63058      30070.215      0.99484732    -8210.2471    
    981900   304.8914      -22.324529      30070.215      0.99484732    -8208.9961    
    982000   296.55019     -1170.9511      30070.215      0.99484732    -8264.2578    
    982100   303.90573     -460.25226      30070.215      0.99484732    -8289.6611    
    982200   292.06711     -122.83414      30070.215      0.99484732    -8313.8063    
    982300   294.9822      -218.96197      30070.215      0.99484732    -8301.5604    
    982400   297.50413      415.7371       30070.215      0.99484732    -8220.765     
    982500   294.20775      413.73783      30070.215      0.99484732    -8207.8011    
    982600   299.66528     -140.29644      30070.215      0.99484732    -8198.7174    
    982700   306.37233     -132.54903      30070.215      0.99484732    -8185.4794    
    982800   302.71536     -126.21363      30070.215      0.99484732    -8201.3892    
    982900   300.13416     -257.43091      30070.215      0.99484732    -8237.971     
    983000   301.08295      95.500792      30070.215      0.99484732    -8259.1503    
    983100   294.86212      49.311444      30070.215      0.99484732    -8256.3997    
    983200   294.58428      269.48592      30070.215      0.99484732    -8222.1427    
    983300   310.36555      66.731904      30070.215      0.99484732    -8166.1767    
    983400   305.33677     -103.47079      30070.215      0.99484732    -8219.1368    
    983500   297.90792     -602.42785      30070.215      0.99484732    -8253.8252    
    983600   306.35035     -222.03859      30070.215      0.99484732    -8239.482     
    983700   292.32774     -408.07763      30070.215      0.99484732    -8249.51      
    983800   305.06289      347.06248      30070.215      0.99484732    -8243.8121    
    983900   304.53453      714.19728      30070.215      0.99484732    -8248.5416    
    984000   310.43935     -457.99837      30070.215      0.99484732    -8310.0303    
    984100   292.60722     -216.9839       30070.215      0.99484732    -8368.0442    
    984200   302.50673     -440.86409      30070.215      0.99484732    -8338.1135    
    984300   303.38019     -133.55783      30070.215      0.99484732    -8275.0575    
    984400   303.32602      516.53174      30070.215      0.99484732    -8236.9976    
    984500   303.14067      102.30799      30070.215      0.99484732    -8231.9398    
    984600   298.14285      316.74505      30070.215      0.99484732    -8266.6295    
    984700   294.07782      194.20427      30070.215      0.99484732    -8318.5036    
    984800   288.1209       88.924215      30070.215      0.99484732    -8401.8847    
    984900   286.61401     -410.75212      30070.215      0.99484732    -8444.2327    
    985000   295.71622      169.30494      30070.215      0.99484732    -8329.2651    
    985100   297.56331     -112.65993      30070.215      0.99484732    -8295.6918    
    985200   298.18482      831.87973      30070.215      0.99484732    -8257.0375    
    985300   309.74432      13.337462      30070.215      0.99484732    -8254.6464    
    985400   294.72239     -673.22229      30070.215      0.99484732    -8318.9003    
    985500   303.21623     -664.09761      30070.215      0.99484732    -8326.1515    
    985600   298.00289      36.612176      30070.215      0.99484732    -8278.5603    
    985700   300.71746      23.537032      30070.215      0.99484732    -8231.5785    
    985800   303.98946     -96.242087      30070.215      0.99484732    -8230.9576    
    985900   312.37455      137.05168      30070.215      0.99484732    -8250.0803    
    986000   306.03686      559.61326      30070.215      0.99484732    -8304.9668    
    986100   300.20473     -240.47568      30070.215      0.99484732    -8356.9913    
    986200   291.60805      87.565123      30070.215      0.99484732    -8340.4748    
    986300   306.99595      582.33732      30070.215      0.99484732    -8304.9541    
    986400   304.76008      525.38205      30070.215      0.99484732    -8316.7692    
    986500   296.23673      82.480583      30070.215      0.99484732    -8340.1933    
    986600   298.44303      263.31749      30070.215      0.99484732    -8333.0763    
    986700   299.14562      163.2056       30070.215      0.99484732    -8323.5922    
    986800   304.60643      70.087451      30070.215      0.99484732    -8258.8271    
    986900   303.60378      185.94284      30070.215      0.99484732    -8214.6106    
    987000   309.0201      -97.951243      30070.215      0.99484732    -8196.7636    
    987100   297.73231      248.95978      30070.215      0.99484732    -8282.4339    
    987200   290.60782      36.872053      30070.215      0.99484732    -8309.0382    
    987300   296.4642       63.350387      30070.215      0.99484732    -8249.6787    
    987400   300.97436      639.72064      30070.215      0.99484732    -8208.6718    
    987500   298.34209     -44.957575      30070.215      0.99484732    -8200.0342    
    987600   306.24595      256.43294      30070.215      0.99484732    -8160.9192    
    987700   307.69588      539.24868      30070.215      0.99484732    -8095.0529    
    987800   299.04887      86.164579      30070.215      0.99484732    -8140.0272    
    987900   306.11726     -604.86106      30070.215      0.99484732    -8169.473     
    988000   298.76795     -232.69805      30070.215      0.99484732    -8189.0179    
    988100   299.4973       537.55816      30070.215      0.99484732    -8221.5804    
    988200   295.31271      238.47395      30070.215      0.99484732    -8271.5356    
    988300   298.67868     -381.98946      30070.215      0.99484732    -8279.0989    
    988400   305.66225     -720.43036      30070.215      0.99484732    -8266.1651    
    988500   300.38179      13.985446      30070.215      0.99484732    -8264.9373    
    988600   293.10954      197.86968      30070.215      0.99484732    -8253.9868    
    988700   299.29576      217.76308      30070.215      0.99484732    -8198.0358    
    988800   304.87989      32.741136      30070.215      0.99484732    -8145.3176    
    988900   312.09533     -278.11704      30070.215      0.99484732    -8125.286     
    989000   301.50905      235.0306       30070.215      0.99484732    -8194.9335    
    989100   290.07385      184.66173      30070.215      0.99484732    -8268.5218    
    989200   306.07521     -86.922579      30070.215      0.99484732    -8234.4108    
    989300   302.01341     -146.43906      30070.215      0.99484732    -8214.5332    
    989400   298.59529      379.88398      30070.215      0.99484732    -8211.6589    
    989500   302.46114      102.75073      30070.215      0.99484732    -8198.5585    
    989600   308.64959      1215.8866      30070.215      0.99484732    -8171.2375    
    989700   304.38841     -51.503712      30070.215      0.99484732    -8205.2328    
    989800   296.92209     -378.79684      30070.215      0.99484732    -8280.732     
    989900   285.90276     -63.561979      30070.215      0.99484732    -8282.3023    
    990000   304.00172     -304.43643      30070.215      0.99484732    -8230.9234    
    990100   299.51937      370.96818      30070.215      0.99484732    -8217.931     
    990200   307.88868      188.36595      30070.215      0.99484732    -8224.8711    
    990300   306.63743     -229.24         30070.215      0.99484732    -8267.0178    
    990400   302.01719     -187.7981       30070.215      0.99484732    -8282.1772    
    990500   306.08475     -113.87717      30070.215      0.99484732    -8271.7402    
    990600   300.72786      36.194814      30070.215      0.99484732    -8276.6809    
    990700   301.6969      -268.19719      30070.215      0.99484732    -8305.6738    
    990800   297.78594      478.87482      30070.215      0.99484732    -8342.4146    
    990900   290.66737     -446.00849      30070.215      0.99484732    -8396.7681    
    991000   293.76329     -455.66228      30070.215      0.99484732    -8358.1449    
    991100   301.14099     -575.3031       30070.215      0.99484732    -8281.8102    
    991200   298.65591      50.534106      30070.215      0.99484732    -8246.4966    
    991300   302.94731     -274.42663      30070.215      0.99484732    -8229.1724    
    991400   292.36467     -273.32046      30070.215      0.99484732    -8259.2513    
    991500   296.42164     -264.88679      30070.215      0.99484732    -8310.5183    
    991600   298.47674     -488.79224      30070.215      0.99484732    -8370.8919    
    991700   292.87733     -166.41737      30070.215      0.99484732    -8353.4764    
    991800   295.61433     -203.18749      30070.215      0.99484732    -8287.9073    
    991900   296.74375      287.79899      30070.215      0.99484732    -8270.2605    
    992000   289.4469       252.89746      30070.215      0.99484732    -8275.1512    
    992100   300.95605     -474.05529      30070.215      0.99484732    -8258.791     
    992200   293.92348     -25.255103      30070.215      0.99484732    -8203.1907    
    992300   309.7135      -235.9072       30070.215      0.99484732    -8153.7209    
    992400   306.86934      164.15248      30070.215      0.99484732    -8183.0484    
    992500   301.05993     -558.78518      30070.215      0.99484732    -8233.8518    
    992600   307.99541     -124.09375      30070.215      0.99484732    -8263.6387    
    992700   295.2558      -585.67612      30070.215      0.99484732    -8297.8933    
    992800   292.09205     -974.72961      30070.215      0.99484732    -8270.2369    
    992900   297.6836       129.09818      30070.215      0.99484732    -8219.9355    
    993000   295.62634      33.361562      30070.215      0.99484732    -8225.7329    
    993100   297.34727     -125.28145      30070.215      0.99484732    -8244.5359    
    993200   296.64501     -87.024086      30070.215      0.99484732    -8266.6398    
    993300   288.41104      118.79482      30070.215      0.99484732    -8303.9999    
    993400   296.13445      367.41132      30070.215      0.99484732    -8284.7812    
    993500   292.35959      555.13594      30070.215      0.99484732    -8215.6729    
    993600   302.41266      827.76775      30070.215      0.99484732    -8178.6954    
    993700   299.96137      475.26106      30070.215      0.99484732    -8215.1603    
    993800   308.1961      -131.65483      30070.215      0.99484732    -8255.9547    
    993900   291.15464      211.57388      30070.215      0.99484732    -8263.8603    
    994000   301.76269      138.39568      30070.215      0.99484732    -8236.83      
    994100   299.2393       725.83467      30070.215      0.99484732    -8226.2       
    994200   301.43873     -33.152423      30070.215      0.99484732    -8318.4973    
    994300   286.74093      161.52443      30070.215      0.99484732    -8335.9707    
    994400   300.29248      684.53508      30070.215      0.99484732    -8292.1993    
    994500   298.38784     -58.104799      30070.215      0.99484732    -8278.2799    
    994600   300.47349     -95.795123      30070.215      0.99484732    -8270.7292    
    994700   301.18195     -134.9484       30070.215      0.99484732    -8200.8315    
    994800   301.09874     -200.52903      30070.215      0.99484732    -8154.8579    
    994900   302.77349      5.27944        30070.215      0.99484732    -8164.2031    
    995000   298.07435      14.855866      30070.215      0.99484732    -8216.8217    
    995100   293.53543     -618.21389      30070.215      0.99484732    -8287.4813    
    995200   296.52481      274.61771      30070.215      0.99484732    -8282.6266    
    995300   298.8486       246.05803      30070.215      0.99484732    -8250.2166    
    995400   301.97921      313.83861      30070.215      0.99484732    -8230.0723    
    995500   297.22324     -6.7195968      30070.215      0.99484732    -8248.3086    
    995600   299.41942     -181.2134       30070.215      0.99484732    -8277.2883    
    995700   297.35809     -173.81485      30070.215      0.99484732    -8291.8654    
    995800   297.21899      461.97339      30070.215      0.99484732    -8300.5665    
    995900   297.68844      196.80002      30070.215      0.99484732    -8279.5507    
    996000   307.13822     -236.45585      30070.215      0.9